3933
Lattice="31.432 0 0 0 31.432 0 0 0 216.164" Properties=species:S:1:pos:R:3 timestep=35915000
O 216.200 19.112 -7.848
O 214.187 23.312 -26.207
O 232.165 7.816 -15.762
O 194.587 3.292 -3.544
O 37.143 19.561 -9.502
O 235.780 23.325 -0.839
O 213.105 8.069 -19.676
O 43.690 3.642 -24.443
O 212.521 13.554 -20.463
O 186.491 28.484 -20.697
O 225.847 28.970 -31.149
O 186.999 26.176 -5.879
O 212.770 7.469 -14.270
O 183.030 13.333 -9.592
O 54.785 16.340 -24.972
O 55.660 6.329 -30.535
O 245.591 2.098 -15.050
O 39.215 23.383 -15.331
O 205.534 28.817 -22.197
O 40.188 4.681 -0.870
O 197.302 18.240 -24.451
O 185.007 0.655 -20.356
O 204.790 24.009 -24.543
O 186.936 11.673 -21.154
O 191.718 9.419 -2.861
O 190.245 29.490 -9.394
O 53.828 30.752 -11.651
O 181.815 22.856 -12.577
O 244.081 27.835 -21.471
O 47.402 15.463 -15.831
O 237.086 0.444 -24.891
O 216.522 12.192 -9.816
O 189.724 5.605 -30.790
O 230.448 29.878 -4.282
O 220.509 5.251 -23.771
O 200.526 4.706 -27.218
O 188.639 16.462 -17.001
O 196.301 0.028 -15.522
O 39.807 30.714 -28.197
O 177.369 15.526 -19.247
O 35.052 21.188 -12.192
O 234.509 1.199 -1.633
O 206.401 6.351 -11.742
O 213.435 7.546 -27.878
O 36.358 18.081 -27.615
O 218.204 14.416 -30.724
O 40.285 21.223 -6.906
O 196.068 26.206 -27.845
O 56.964 9.852 -10.176
O 229.347 6.349 -9.302
O 198.845 21.643 -4.595
O 218.426 13.313 -23.079
O 190.972 8.283 -21.735
O 228.514 1.507 -23.309
O 180.510 21.160 -2.487
O 47.717 25.383 -28.568
O 235.362 10.052 -24.625
O 246.751 24.677 -25.092
O 192.327 1.211 -22.851
O 180.351 22.686 -0.137
O 226.154 29.396 -27.356
O 226.140 5.089 -15.528
O 249.372 15.505 -26.382
O 212.673 29.185 -27.583
O 215.589 9.768 -6.054
O 187.664 22.320 -22.575
O 203.852 16.440 -29.167
O 181.268 11.535 -24.598
O 248.361 3.355 -25.187
O 211.243 13.680 -17.168
O 242.338 2.494 -20.896
O 196.959 4.315 -1.101
O 224.926 21.384 -5.055
O 199.122 12.003 -21.408
O 230.132 4.441 -14.640
O 40.261 26.105 -8.865
O 44.719 27.090 -14.307
O 187.762 9.981 -9.464
O 46.170 3.556 -30.828
O 238.667 30.677 -15.406
O 33.520 27.646 -24.872
O 193.935 26.578 -13.143
O 240.049 8.493 -4.048
O 211.094 30.350 -9.065
O 220.451 9.319 -24.769
O 190.151 21.400 -25.399
O 222.727 0.365 -18.636
O 241.014 11.913 -3.953
O 52.851 3.687 -14.168
O 49.628 14.298 -2.380
O 46.527 19.150 -13.241
O 188.435 25.826 -11.983
O 47.319 2.612 -2.399
O 220.865 28.101 -12.409
O 189.284 28.979 -0.343
O 211.247 11.271 -1.286
O 218.065 8.099 -0.936
O 56.806 16.076 -30.427
O 239.202 28.118 -4.098
O 193.339 22.496 -21.521
O 34.164 20.420 -19.052
O 53.634 14.553 -28.082
O 189.981 5.593 -27.929
O 218.432 24.844 -28.068
O 183.421 25.085 -19.997
O 51.117 20.271 -27.162
O 196.824 10.534 -23.458
O 188.929 9.895 -12.167
O 231.372 25.504 -30.535
O 233.605 8.019 -18.177
O 248.518 16.516 -9.066
O 238.504 3.471 -3.456
O 36.740 7.939 -7.299
O 229.068 21.953 -15.567
O 55.317 18.418 -30.879
O 236.788 12.491 -13.801
O 209.867 27.679 -30.813
O 208.529 31.049 -27.957
O 216.133 1.385 -27.662
O 242.658 6.755 -13.659
O 241.845 3.091 -6.885
O 212.421 12.314 -11.813
O 230.451 5.052 -6.726
O 187.044 23.104 -0.977
O 238.903 14.328 -2.204
O 54.974 28.731 -8.613
O 226.821 2.496 -13.117
O 207.578 24.177 -31.091
O 179.766 20.515 -22.703
O 190.039 2.456 -24.361
O 183.063 27.366 -8.648
O 213.788 7.929 -10.522
O 38.663 16.640 -10.178
O 248.065 30.050 -28.639
O 186.315 0.670 -12.195
O 222.282 25.704 -21.852
O 216.436 11.036 -21.972
O 210.750 6.321 -23.515
O 244.731 2.284 -11.989
O 201.369 19.975 -16.013
O 228.850 30.428 -6.458
O 235.995 2.447 -7.111
O 245.367 15.082 -24.512
O 242.053 5.341 -19.975
O 238.175 10.288 -26.773
O 242.105 9.706 -2.279
O 206.559 0.331 -10.550
O 51.865 28.642 -29.276
O 206.738 26.616 -30.409
O 242.062 0.702 -9.920
O 241.537 14.541 -25.015
O 232.939 31.345 -16.749
O 184.883 23.570 -30.158
O 232.940 29.654 -0.182
O 50.744 0.163 -7.671
O 180.841 15.299 -3.443
O 44.432 29.212 -15.980
O 51.430 12.217 -15.173
O 233.626 28.048 -12.517
O 214.887 29.153 -19.777
O 46.070 12.701 -11.837
O 241.149 24.671 -17.462
O 203.129 18.535 -7.258
O 206.175 10.362 -13.786
O 219.319 3.273 -6.601
O 45.820 29.415 -18.237
O 245.632 14.124 -6.794
O 211.727 1.345 -10.647
O 218.289 19.641 -16.405
O 48.166 17.565 -27.821
O 221.159 15.179 -3.556
O 235.042 0.555 -14.806
O 228.690 0.478 -9.435
O 179.645 5.286 -27.400
O 42.646 19.523 -6.930
O 201.064 20.286 -12.680
O 50.054 8.818 -6.083
O 184.687 18.242 -27.242
O 42.105 26.206 -15.666
O 245.012 16.655 -7.476
O 247.441 22.891 -21.276
O 239.145 25.910 -19.993
O 225.862 26.249 -31.429
O 192.487 26.347 -5.850
O 217.777 25.616 -1.554
O 230.464 30.874 -1.454
O 232.564 18.898 -3.563
O 207.748 6.994 -23.035
O 196.553 20.432 -19.049
O 232.462 27.047 -20.911
O 245.275 8.324 -6.578
O 218.249 7.239 -12.105
O 34.474 17.849 -18.283
O 53.797 27.860 -14.326
O 243.131 7.971 -19.136
O 248.104 11.913 -2.841
O 234.435 10.625 -19.168
O 203.577 22.628 -29.977
O 35.347 12.206 -1.606
O 48.251 8.624 -27.381
O 203.159 5.669 -26.257
O 217.541 14.986 -7.877
O 53.515 10.609 -30.389
O 186.065 3.743 -29.309
O 189.310 19.058 -8.484
O 202.129 31.105 -27.689
O 245.828 17.543 -10.114
O 204.639 6.567 -0.061
O 233.423 11.909 -29.465
O 214.594 13.739 -7.890
O 184.414 0.893 -7.376
O 209.764 17.892 -6.945
O 56.756 22.991 -29.905
O 43.891 10.732 -26.512
O 50.801 7.362 -30.827
O 194.354 9.062 -10.632
O 213.173 19.832 -27.328
O 210.584 9.577 -30.803
O 219.755 30.649 -3.872
O 216.216 5.488 -23.746
O 226.751 18.620 -25.471
O 240.305 11.266 -21.219
O 39.595 23.715 -28.833
O 215.556 0.446 -19.088
O 248.207 20.210 -6.042
O 194.561 11.287 -12.619
O 240.775 18.451 -7.129
O 230.074 22.878 -21.254
O 231.805 2.611 -7.410
O 183.445 10.464 -7.684
O 220.922 31.213 -8.763
O 40.179 4.574 -7.106
O 235.141 5.421 -14.399
O 221.456 30.997 -28.041
O 189.186 18.680 -5.837
O 41.361 29.931 -5.761
O 184.610 8.042 -19.504
O 226.160 30.807 -24.957
O 34.986 6.295 -8.652
O 35.083 26.901 -18.556
O 234.916 29.470 -22.135
O 231.194 16.034 -0.304
O 239.848 19.246 -18.340
O 45.621 13.236 -27.949
O 228.887 10.446 -1.551
O 36.518 20.713 -15.720
O 219.476 23.126 -1.122
O 200.938 6.913 -15.585
O 209.328 16.264 -24.889
O 181.017 31.051 -18.545
O 232.471 7.838 -0.143
O 230.578 0.085 -29.224
O 196.893 11.005 -17.734
O 201.793 25.153 -6.684
O 202.311 21.304 -7.481
O 217.977 6.946 -19.420
O 236.861 25.419 -2.376
O 193.384 21.908 -14.384
O 185.405 20.607 -28.978
O 186.876 16.059 -8.975
O 181.835 1.672 -13.689
O 247.448 4.698 -4.801
O 198.651 14.698 -30.802
O 241.569 7.136 -6.264
O 204.483 10.343 -20.516
O 34.337 12.655 -15.031
O 247.297 16.643 -4.004
O 242.624 22.534 -23.441
O 34.403 9.626 -0.730
O 213.832 29.551 -8.207
O 35.452 0.765 -29.285
O 57.179 4.291 -0.291
O 192.992 16.105 -31.338
O 39.204 27.032 -3.837
O 247.299 6.217 -15.389
O 213.305 3.816 -3.727
O 240.926 11.377 -6.882
O 213.135 27.620 -24.780
O 208.766 2.983 -0.100
O 215.740 1.960 -24.780
O 210.137 16.410 -14.181
O 180.533 24.267 -10.655
O 50.918 1.623 -25.776
O 192.670 8.129 -31.404
O 217.283 23.403 -11.491
O 201.831 1.817 -10.601
O 229.364 9.363 -27.792
O 226.016 19.790 -27.822
O 224.858 2.767 -27.728
O 244.027 27.319 -4.425
O 48.517 24.725 -25.040
O 179.750 12.437 -4.933
O 50.410 7.805 -10.647
O 203.327 30.500 -22.088
O 197.101 9.142 -13.156
O 198.474 8.136 -16.340
O 248.239 2.031 -0.024
O 34.228 13.861 -7.564
O 49.086 11.690 -8.514
O 222.989 23.897 -9.403
O 241.409 30.183 -5.013
O 209.487 18.128 -3.747
O 242.216 16.991 -23.263
O 237.619 16.442 -12.449
O 37.506 6.051 -12.035
O 241.249 4.144 -3.890
O 198.689 28.357 -14.573
O 237.068 2.678 -12.444
O 241.788 6.221 -22.722
O 220.589 27.713 -22.326
O 208.701 4.743 -16.975
O 220.842 8.881 -3.295
O 192.279 20.889 -28.789
O 227.567 24.625 -26.995
O 209.724 11.463 -23.361
O 41.149 7.585 -24.897
O 247.175 13.705 -28.451
O 199.115 11.353 -29.613
O 232.414 28.470 -5.652
O 205.924 8.486 -24.465
O 227.785 4.218 -17.622
O 178.399 5.039 -21.311
O 216.342 30.294 -28.835
O 187.701 20.649 -10.101
O 211.122 1.761 -19.360
O 191.929 12.989 -5.406
O 42.766 24.612 -13.505
O 204.152 27.144 -29.422
O 207.597 31.038 -22.443
O 232.375 19.675 -23.795
O 38.341 15.145 -1.776
O 200.689 1.764 -2.868
O 50.148 20.067 -9.957
O 239.587 6.272 -24.389
O 222.170 29.806 -16.824
O 191.737 8.446 -19.089
O 49.283 8.716 -13.182
O 246.468 28.238 -19.306
O 34.202 25.877 -10.819
O 48.980 31.041 -2.201
O 205.580 3.628 -31.283
O 44.339 25.638 -22.680
O 36.608 16.667 -19.330
O 223.354 2.969 -23.228
O 198.002 20.665 -25.151
O 35.219 18.532 -23.382
O 210.600 23.648 -5.090
O 246.157 29.317 -26.898
O 235.429 19.188 -7.759
O 247.250 15.201 -20.442
O 35.325 5.943 -26.708
O 52.831 6.680 -5.544
O 229.740 20.723 -13.256
O 183.807 23.247 -7.825
O 215.402 9.200 -25.649
O 221.554 4.584 -13.994
O 189.294 24.714 -23.680
O 54.048 22.048 -18.614
O 186.288 0.724 -9.456
O 42.443 2.667 -4.950
O 188.550 2.046 -8.811
O 245.022 10.171 -4.538
O 205.225 20.378 -4.126
O 41.433 28.955 -23.587
O 48.653 1.991 -15.712
O 234.009 14.909 -5.043
O 198.734 29.498 -25.174
O 218.480 23.236 -4.111
O 36.567 2.268 -20.045
O 211.185 6.239 -27.077
O 224.465 21.674 -15.573
O 56.595 1.822 -30.085
O 185.459 6.314 -13.400
O 42.112 0.619 -17.257
O 202.233 8.975 -13.852
O 223.646 16.438 -3.166
O 200.232 17.857 -8.832
O 45.858 16.650 -31.031
O 200.997 18.244 -26.447
O 50.362 8.989 -1.565
O 214.506 16.762 -16.311
O 225.102 12.560 -28.971
O 192.759 25.606 -19.483
O 222.158 17.034 -19.422
O 52.986 26.467 -28.208
O 38.063 5.156 -26.524
O 51.929 9.817 -16.236
O 181.187 28.814 -16.635
O 205.436 28.974 -4.671
O 38.047 14.468 -20.082
O 219.581 10.142 -19.100
O 246.681 29.840 -21.439
O 55.389 16.629 -27.844
O 240.073 2.370 -22.705
O 233.480 5.011 -2.526
O 227.665 25.026 -11.275
O 238.226 29.931 -8.517
O 233.466 2.812 -26.948
O 239.389 24.766 -2.602
O 189.514 3.175 -15.486
O 33.371 1.857 -27.162
O 244.696 19.249 -26.272
O 212.075 18.883 -4.084
O 217.950 14.052 -11.493
O 202.029 30.458 -10.335
O 198.400 25.511 -0.890
O 189.376 16.932 -30.054
O 228.499 9.453 -8.576
O 241.442 9.878 -11.826
O 41.121 23.157 -20.286
O 241.426 30.988 -30.765
O 232.954 11.105 -0.911
O 179.804 23.819 -28.821
O 183.154 8.589 -12.276
O 220.939 14.496 -21.467
O 222.896 1.550 -7.559
O 52.438 20.751 -11.698
O 223.372 18.989 -14.003
O 235.356 8.887 -14.550
O 35.591 29.612 -28.111
O 197.603 9.110 -25.629
O 216.332 26.933 -6.237
O 187.912 18.435 -26.852
O 248.272 23.056 -29.268
O 227.136 17.082 -6.100
O 46.130 27.348 -3.903
O 50.015 0.274 -17.733
O 216.351 8.614 -20.479
O 57.159 29.335 -15.531
O 182.528 28.938 -21.800
O 49.976 25.999 -27.140
O 48.832 18.376 -11.834
O 52.730 6.793 -14.443
O 240.360 23.612 -13.210
O 238.638 4.043 -17.767
O 177.965 13.806 -1.699
O 48.994 26.329 -11.639
O 232.774 12.036 -15.022
O 208.980 20.525 -28.791
O 36.476 8.096 -23.602
O 237.801 7.746 -14.254
O 216.104 3.267 -6.046
O 206.032 24.602 -3.421
O 178.272 9.198 -15.990
O 201.745 16.639 -1.251
O 40.475 13.699 -19.145
O 208.100 7.891 -4.757
O 38.953 29.873 -13.314
O 40.562 25.913 -18.151
O 192.721 6.561 -6.947
O 47.377 8.259 -4.471
O 236.973 21.362 -19.471
O 56.373 7.524 -11.455
O 195.594 8.815 -30.305
O 247.345 17.191 -6.542
O 227.341 6.166 -26.661
O 179.983 29.409 -6.263
O 238.572 0.874 -31.186
O 204.266 22.613 -6.026
O 43.144 22.798 -10.001
O 236.883 12.151 -4.069
O 227.754 30.401 -18.814
O 210.792 24.722 -9.034
O 195.145 31.125 -28.991
O 238.979 12.372 -24.604
O 47.318 11.708 -0.264
O 221.984 17.338 -15.753
O 56.844 26.015 -7.056
O 249.234 11.306 -6.663
O 181.421 12.854 -7.107
O 233.070 23.759 -2.079
O 193.204 21.247 -16.994
O 48.880 3.471 -19.080
O 35.017 16.352 -9.740
O 221.829 7.232 -13.685
O 181.382 17.369 -17.597
O 40.998 25.792 -27.364
O 209.507 2.408 -23.810
O 190.300 20.934 -0.255
O 217.756 10.642 -11.754
O 226.249 18.562 -15.670
O 185.010 26.165 -0.107
O 247.563 6.867 -27.867
O 37.673 31.062 -7.983
O 53.061 16.612 -22.474
O 231.877 29.597 -22.491
O 224.107 14.871 -24.541
O 214.205 2.236 -7.603
O 227.846 9.145 -13.875
O 207.165 8.160 -1.135
O 48.901 20.531 -15.132
O 218.177 25.573 -21.196
O 245.302 19.697 -12.963
O 222.206 7.375 -23.906
O 37.100 13.087 -7.845
O 214.265 10.515 -11.077
O 247.201 9.066 -2.332
O 191.128 23.276 -29.554
O 224.071 31.254 -21.084
O 203.698 31.173 -18.869
O 185.798 17.493 -24.493
O 206.944 0.874 -25.183
O 34.845 31.437 -12.816
O 189.931 1.837 -18.006
O 225.435 17.684 -8.161
O 48.118 14.342 -13.361
O 221.962 20.002 -19.562
O 42.484 15.392 -24.919
O 52.822 29.784 -5.531
O 235.917 12.388 -28.559
O 41.473 16.501 -0.956
O 203.004 16.119 -26.200
O 225.590 10.059 -3.767
O 45.758 11.737 -22.720
O 213.907 16.276 -30.330
O 215.575 5.791 -27.210
O 36.896 15.961 -15.524
O 245.846 19.434 -21.108
O 53.553 8.039 -29.380
O 216.318 25.357 -12.942
O 245.036 29.535 -7.580
O 229.447 6.332 -24.700
O 209.120 4.191 -28.116
O 233.629 16.957 -13.014
O 249.313 22.802 -12.889
O 192.588 1.580 -18.193
O 211.636 17.691 -28.246
O 221.246 20.631 -22.282
O 238.159 16.927 -22.355
O 192.604 24.903 -10.744
O 203.289 2.705 -18.141
O 55.516 17.146 -9.130
O 44.030 28.005 -24.395
O 218.635 26.855 -11.373
O 51.303 19.821 -13.980
O 202.547 7.922 -2.448
O 33.325 16.112 -16.382
O 249.412 24.383 -16.770
O 247.965 3.144 -14.136
O 207.712 28.144 -1.218
O 201.555 4.220 -2.714
O 36.980 10.700 -12.250
O 238.847 13.552 -21.912
O 181.861 26.811 -10.847
O 50.162 29.292 -26.824
O 219.074 5.344 -1.179
O 241.374 6.070 -26.681
O 46.809 0.963 -23.975
O 198.716 20.311 -17.359
O 209.661 28.631 -28.366
O 231.875 14.471 -10.085
O 192.146 30.551 -0.877
O 47.718 6.685 -29.155
O 240.132 17.669 -27.968
O 39.843 5.415 -24.195
O 220.998 3.220 -8.721
O 40.796 26.386 -12.635
O 228.679 19.802 -23.943
O 243.649 19.144 -7.092
O 49.016 29.474 -7.405
O 211.522 14.033 -14.277
O 199.227 4.398 -11.710
O 184.460 15.363 -8.285
O 55.689 21.447 -10.941
O 222.834 11.399 -0.266
O 181.112 3.039 -21.474
O 39.910 29.275 -25.739
O 206.914 20.304 -8.542
O 194.348 2.041 -5.905
O 226.967 17.251 -21.271
O 54.142 11.268 -26.020
O 209.255 21.275 -13.969
O 189.519 27.322 -3.301
O 45.897 22.834 -0.639
O 41.420 24.856 -22.541
O 205.447 25.914 -16.037
O 207.943 11.568 -6.970
O 222.113 25.699 -27.041
O 43.621 28.837 -20.183
O 231.642 21.942 -0.647
O 208.025 24.358 -25.697
O 41.719 10.689 -23.085
O 190.084 14.947 -23.262
O 227.457 15.961 -27.714
O 207.033 4.767 -14.007
O 245.054 24.793 -2.873
O 35.064 2.649 -11.667
O 226.530 24.554 -24.186
O 192.711 28.890 -13.183
O 238.445 1.455 -6.957
O 53.296 24.243 -1.159
O 49.608 20.552 -4.970
O 209.284 30.920 -6.989
O 45.591 18.332 -23.677
O 180.862 25.932 -1.195
O 234.442 2.103 -12.192
O 237.888 24.197 -18.246
O 203.639 1.744 -22.343
O 183.733 8.780 -31.270
O 51.904 12.748 -2.777
O 188.939 13.438 -2.589
O 56.705 25.078 -9.641
O 35.981 18.107 -30.425
O 47.745 22.489 -17.049
O 191.800 15.451 -4.352
O 204.232 16.884 -2.917
O 50.672 9.000 -28.614
O 183.216 17.678 -1.276
O 190.896 18.718 -27.994
O 199.891 24.049 -27.339
O 39.835 16.736 -25.563
O 234.892 17.762 -26.025
O 195.248 3.855 -28.926
O 208.449 26.515 -6.103
O 52.282 26.326 -19.834
O 216.731 18.642 -30.238
O 45.485 17.035 -2.401
O 43.223 10.633 -3.057
O 234.584 13.792 -22.712
O 211.411 22.217 -8.000
O 54.915 12.188 -28.712
O 231.824 -0.037 -20.614
O 183.420 10.417 -2.237
O 196.976 14.338 -11.578
O 50.740 6.241 -25.698
O 187.610 11.948 -16.446
O 209.755 12.596 -12.268
O 217.940 21.643 -30.820
O 246.650 3.937 -28.573
O 52.421 30.604 -16.570
O 193.612 29.333 -30.388
O 198.704 18.024 -4.965
O 204.857 7.394 -6.856
O 46.406 2.171 -11.041
O 182.446 6.493 -19.935
O 227.284 1.330 -15.567
O 229.904 23.121 -30.551
O 238.177 21.136 -5.049
O 200.552 19.854 -3.066
O 234.680 19.719 -12.839
O 182.678 16.437 -11.315
O 236.782 18.082 -15.379
O 233.450 26.264 -25.994
O 43.386 14.405 -27.286
O 231.171 17.288 -24.387
O 197.866 15.476 -5.369
O 203.561 30.921 -13.650
O 242.599 9.269 -16.677
O 237.699 16.260 -7.997
O 243.814 21.745 -25.627
O 209.773 9.576 -7.000
O 203.090 26.958 -12.995
O 245.882 9.251 -18.870
O 186.794 23.180 -18.085
O 216.293 16.854 -24.532
O 44.959 6.101 -27.890
O 180.410 7.801 -15.451
O 45.125 12.644 -20.049
O 248.275 22.284 -18.384
O 183.201 24.713 -27.509
O 244.711 11.538 -2.240
O 192.978 14.527 -10.957
O 231.766 7.784 -25.219
O 220.043 24.224 -19.369
O 242.696 19.788 -18.432
O 56.303 4.440 -16.964
O 226.301 8.934 -30.739
O 198.746 16.532 -14.457
O 192.445 18.205 -1.943
O 248.082 25.100 -12.105
O 241.711 0.839 -18.829
O 204.999 18.470 -9.180
O 192.565 18.363 -23.464
O 204.386 19.943 -27.372
O 195.665 31.125 -6.607
O 228.447 9.474 -4.577
O 230.809 2.198 -27.169
O 233.298 1.355 -24.163
O 228.412 22.481 -23.634
O 208.408 12.732 -0.170
O 46.131 5.234 -3.700
O 210.585 21.119 -24.002
O 45.669 3.668 -8.380
O 33.807 14.302 -21.931
O 209.880 16.094 -17.891
O 44.365 8.866 -28.603
O 197.093 28.630 -0.444
O 237.343 19.106 -25.598
O 196.971 21.819 -0.763
O 189.687 0.023 -25.847
O 195.971 27.454 -17.985
O 185.050 8.379 -3.711
O 229.347 19.474 -26.994
O 56.919 7.787 -14.567
O 238.701 24.284 -15.473
O 208.903 16.251 -27.712
O 49.197 8.300 -17.962
O 227.765 16.751 -9.387
O 204.918 2.871 -24.481
O 184.989 3.250 -10.535
O 222.283 15.590 -30.923
O 199.444 13.206 -12.291
O 237.814 4.884 -14.211
O 184.096 28.218 -24.183
O 219.039 12.110 -26.846
O 193.820 6.069 -1.680
O 236.086 26.273 -29.072
O 34.475 4.004 -14.082
O 228.156 30.059 -31.069
O 247.279 20.719 -30.512
O 49.216 30.891 -10.865
O 228.835 18.316 -16.294
O 51.670 18.076 -8.510
O 37.403 4.803 -19.423
O 204.919 0.386 -2.203
O 224.123 21.795 -2.261
O 214.946 14.254 -27.442
O 198.844 24.528 -8.835
O 248.618 7.383 -8.952
O 47.744 7.874 -23.232
O 241.434 15.514 -6.390
O 179.495 5.616 -4.326
O 57.248 22.836 -1.149
O 230.128 4.551 -10.988
O 235.831 29.334 -18.897
O 44.112 30.162 -29.475
O 223.670 4.911 -19.664
O 43.005 8.932 -16.417
O 211.038 30.461 -25.315
O 204.777 4.978 -18.634
O 50.770 17.288 -27.989
O 183.763 0.905 -24.288
O 248.882 5.298 -19.817
O 226.612 20.240 -0.258
O 241.857 27.816 -16.959
O 191.018 16.640 -6.858
O 202.991 18.451 -18.317
O 189.052 3.203 -26.834
O 39.431 12.467 -24.078
O 203.367 15.012 -7.447
O 235.443 3.456 -21.860
O 53.048 18.147 -25.737
O 181.235 0.570 -5.967
O 248.052 6.071 -25.261
O 229.786 23.899 -25.881
O 241.339 30.650 -26.930
O 205.956 10.317 -2.995
O 228.960 2.982 -2.610
O 212.277 24.878 -24.829
O 238.741 12.764 -6.406
O 237.495 30.489 -5.547
O 208.603 16.071 -9.945
O 221.772 14.901 -10.191
O 185.702 2.783 -2.272
O 204.548 18.139 -25.077
O 54.463 10.121 -3.435
O 49.374 4.939 -16.269
O 204.956 8.029 -13.297
O 216.254 22.502 -7.464
O 209.248 19.614 -9.839
O 207.892 6.500 -8.872
O 50.432 29.110 -12.894
O 224.996 22.390 -24.831
O 215.992 7.309 -9.001
O 199.359 17.336 -30.120
O 239.476 3.932 -7.941
O 209.271 31.004 -16.224
O 237.175 20.492 -28.158
O 209.237 0.832 -11.829
O 222.645 8.752 -29.290
O 239.130 11.450 -12.217
O 194.256 4.548 -23.996
O 219.645 6.973 -29.409
O 38.341 22.476 -22.192
O 216.055 24.234 -5.384
O 240.945 17.762 -31.183
O 38.313 24.691 -19.916
O 43.453 21.515 -0.318
O 195.552 9.175 -27.389
O 38.504 20.453 -18.090
O 205.856 13.024 -25.073
O 42.611 20.797 -18.324
O 45.299 5.748 -1.051
O 197.338 27.179 -24.346
O 41.059 20.096 -28.775
O 192.425 5.450 -11.636
O 239.097 17.000 -24.881
O 243.047 29.982 -18.023
O 225.412 10.833 -1.021
O 194.808 12.618 -16.066
O 198.707 13.924 -7.568
O 200.453 3.793 -9.319
O 219.596 19.469 -26.603
O 224.231 8.207 -12.411
O 182.904 5.563 -10.928
O 44.205 23.189 -4.709
O 187.357 29.657 -28.981
O 245.982 26.646 -22.992
O 44.220 23.620 -7.737
O 192.749 21.148 -1.680
O 233.325 0.492 -10.395
O 214.186 4.209 -24.818
O 215.363 5.818 -3.788
O 187.747 22.491 -27.102
O 53.711 8.011 -12.179
O 207.925 23.769 -13.133
O 222.291 20.919 -29.666
O 33.584 30.512 -7.685
O 206.695 24.390 -7.085
O 182.069 22.226 -27.990
O 201.859 18.080 -11.165
O 45.823 26.845 -11.682
O 247.804 9.439 -5.010
O 48.700 8.906 -8.675
O 49.834 19.747 -2.050
O 228.930 10.794 -25.446
O 249.174 20.293 -23.991
O 248.936 26.959 -3.856
O 207.794 25.506 -17.788
O 197.436 29.809 -29.513
O 242.840 5.571 -10.229
O 228.107 15.480 -3.068
O 41.442 25.508 -4.902
O 208.560 9.571 -18.298
O 232.532 5.986 -11.057
O 226.849 7.461 -11.987
O 44.650 24.364 -17.590
O 230.992 8.399 -2.893
O 55.085 3.336 -25.765
O 197.890 2.361 -4.567
O 190.036 16.549 -19.572
O 33.707 20.066 -1.496
O 186.607 5.026 -24.878
O 33.806 19.556 -8.987
O 46.928 29.263 -11.886
O 185.601 30.391 -25.253
O 209.493 2.183 -14.361
O 40.230 17.775 -7.138
O 191.026 26.724 -0.838
O 235.161 12.815 -25.271
O 34.093 24.267 -26.110
O 219.043 17.347 -6.829
O 206.783 17.777 -4.235
O 209.571 29.175 -20.426
O 229.650 11.367 -13.864
O 34.950 30.058 -22.026
O 196.446 22.164 -29.316
O 180.409 16.495 -21.468
O 236.870 29.582 -2.646
O 205.671 15.896 -6.236
O 201.540 24.087 -12.243
O 48.467 30.917 -28.183
O 216.003 22.748 -28.241
O 208.112 26.239 -3.151
O 220.321 20.862 -6.990
O 41.799 25.387 -0.709
O 230.937 12.246 -2.316
O 233.245 29.430 -24.963
O 42.801 20.978 -2.850
O 221.035 19.526 -17.121
O 218.776 19.807 -23.628
O 188.122 20.498 -18.471
O 242.775 6.575 -2.930
O 204.897 4.794 -7.712
O 192.649 25.114 -22.287
O 200.201 22.950 -6.893
O 48.838 15.519 -31.245
O 43.580 12.639 -17.003
O 221.351 27.460 -17.655
O 246.400 21.997 -12.240
O 210.304 20.363 -6.070
O 208.245 14.437 -5.457
O 225.704 22.051 -21.648
O 201.263 29.204 -24.043
O 201.436 8.172 -11.259
O 183.430 1.858 -26.878
O 224.664 1.890 -5.059
O 213.078 3.692 -9.654
O 38.625 16.685 -13.477
O 201.149 6.083 -24.557
O 234.190 21.760 -24.018
O 36.646 25.831 -7.713
O 42.883 25.607 -10.224
O 219.451 9.353 -27.398
O 237.710 29.024 -20.993
O 224.769 26.075 -27.204
O 190.588 24.292 -15.480
O 194.012 21.325 -4.248
O 35.120 10.217 -13.948
O 224.340 5.992 -10.435
O 203.089 19.351 -22.692
O 196.659 16.419 -0.732
O 240.588 23.856 -21.306
O 242.828 22.445 -13.150
O 47.028 5.779 -21.740
O 217.330 3.819 -3.446
O 182.485 3.710 -19.244
O 40.313 2.398 -30.425
O 228.491 24.444 -14.223
O 36.785 29.923 -1.716
O 50.294 2.097 -3.620
O 33.523 11.053 -28.578
O 46.301 25.850 -6.150
O 198.120 8.840 -4.593
O 55.815 29.417 -12.870
O 205.529 22.041 -1.887
O 220.336 12.674 -10.506
O 188.075 19.677 -29.960
O 180.930 18.035 -14.547
O 223.109 26.061 -19.203
O 208.147 22.438 -4.224
O 52.947 8.591 -26.404
O 241.792 26.613 -19.555
O 238.535 7.242 -0.032
O 235.923 23.993 -10.173
O 181.280 22.385 -8.976
O 192.875 30.010 -5.207
O 231.524 6.689 -19.317
O 184.427 0.083 -14.363
O 244.214 7.488 -23.797
O 179.669 14.983 -17.754
O 242.560 2.322 -1.991
O 247.540 29.683 -8.993
O 245.886 23.874 -14.383
O 212.231 6.675 -30.160
O 243.450 5.300 -7.296
O 220.444 7.960 -10.543
O 248.877 2.494 -9.906
O 232.515 26.891 -17.970
O 218.415 6.628 -5.620
O 197.042 30.268 -4.405
O 39.251 24.011 -12.764
O 33.761 13.593 -17.902
O 237.317 18.480 -5.766
O 201.820 20.642 -31.355
O 238.852 5.158 -20.292
O 185.092 28.397 -13.001
O 186.416 27.375 -23.174
O 236.131 15.531 -27.373
O 247.691 6.692 -11.351
O 232.647 8.077 -8.998
O 33.776 26.418 -20.876
O 41.223 9.798 -13.139
O 248.262 7.012 -6.283
O 219.531 15.546 -27.133
O 33.484 4.716 -28.136
O 33.514 27.625 -8.643
O 242.213 13.580 -8.275
O 35.731 2.022 -15.672
O 246.950 7.657 -20.797
O 244.091 29.785 -14.785
O 182.004 28.536 -2.393
O 214.795 3.331 -29.082
O 197.023 13.501 -29.042
O 185.308 25.663 -7.977
O 215.415 8.194 -0.141
O 214.058 4.900 -17.307
O 44.372 12.473 -5.083
O 202.286 0.529 -1.124
O 245.362 6.517 -9.034
O 186.387 24.561 -13.420
O 192.759 13.313 -13.540
O 180.457 15.557 -7.568
O 183.609 15.693 -16.104
O 235.963 14.326 -7.350
O 194.761 14.182 -8.903
O 214.051 25.601 -27.695
O 177.004 12.367 -29.319
O 235.452 9.966 -2.703
O 225.198 2.024 -1.031
O 200.451 10.570 -8.170
O 45.277 20.682 -4.031
O 45.750 7.952 -15.073
O 51.810 14.562 -20.434
O 46.394 24.044 -3.184
O 181.944 13.059 -12.148
O 44.916 17.250 -11.874
O 36.201 23.110 -4.849
O 228.135 13.727 -13.969
O 234.180 15.938 -30.240
O 197.641 21.252 -21.509
O 222.627 20.046 -5.525
O 177.937 7.246 -2.292
O 39.075 28.548 -1.330
O 235.999 8.467 -26.791
O 188.868 30.549 -4.246
O 225.057 26.628 -22.973
O 212.901 27.008 -15.784
O 206.466 28.582 -13.551
O 38.791 6.737 -30.777
O 190.723 10.931 -20.566
O 204.108 12.691 -2.026
O 198.352 20.163 -9.178
O 38.653 23.873 -7.212
O 50.669 20.486 -18.650
O 51.484 2.575 -19.044
O 242.968 28.639 -2.226
O 38.448 21.021 -24.514
O 46.098 21.769 -11.879
O 211.436 25.238 -13.939
O 198.295 8.801 -9.048
O 223.938 6.815 -26.073
O 201.047 6.566 -20.033
O 42.477 23.672 -2.799
O 196.007 28.730 -9.961
O 220.717 24.288 -30.316
O 247.086 16.962 -13.457
O 244.149 2.520 -9.372
O 198.043 27.308 -4.655
O 216.993 20.688 -2.861
O 55.530 19.537 -13.148
O 239.813 21.607 -30.210
O 54.963 3.864 -12.390
O 202.614 0.242 -16.462
O 47.669 18.602 -6.153
O 228.553 5.743 -29.192
O 223.993 7.012 -16.090
O 245.700 22.162 -23.201
O 225.250 22.243 -13.083
O 244.914 6.609 -16.945
O 204.992 22.109 -22.497
O 53.972 11.741 -7.025
O 48.997 3.265 -12.181
O 212.800 29.795 -15.035
O 207.098 17.250 -7.899
O 197.390 23.199 -17.751
O 34.159 6.629 -30.638
O 212.738 22.075 -31.096
O 194.646 9.680 -18.897
O 200.283 28.801 -4.548
O 46.609 9.091 -12.791
O 51.746 10.276 -4.121
O 186.487 7.666 -8.606
O 227.062 9.215 -24.421
O 195.337 2.665 -11.157
O 214.601 19.627 -19.210
O 185.099 12.806 -22.960
O 207.441 27.677 -25.718
O 229.811 19.782 -19.695
O 55.809 6.462 -8.401
O 37.862 1.902 -13.738
O 36.123 12.428 -18.882
O 37.008 10.286 -0.225
O 236.009 18.189 -18.828
O 37.617 21.110 -13.206
O 219.075 1.814 -4.066
O 242.243 11.798 -24.298
O 247.478 21.198 -8.384
O 41.538 30.013 -15.396
O 40.144 27.912 -14.791
O 231.425 24.841 -8.152
O 204.583 8.784 -28.655
O 210.520 20.308 -31.372
O 38.348 17.715 -17.213
O 222.850 13.580 -19.193
O 242.488 9.977 -27.157
O 45.257 17.449 -19.778
O 36.440 29.943 -14.479
O 196.507 27.046 -2.495
O 193.288 30.393 -21.012
O 219.658 21.223 -9.983
O 49.404 21.735 -25.338
O 182.443 4.089 -28.134
O 247.935 4.787 -30.899
O 187.395 22.759 -6.455
O 201.830 6.238 -9.310
O 47.948 29.646 -22.262
O 201.556 2.536 -28.747
O 42.719 0.979 -20.154
O 204.297 3.099 -2.229
O 231.483 9.539 -5.390
O 248.469 27.375 -28.990
O 45.443 2.693 -5.640
O 42.148 4.985 -26.266
O 184.678 1.672 -30.536
O 207.593 14.074 -11.473
O 194.952 0.264 -19.348
O 217.547 2.284 -11.532
O 40.190 1.318 -4.889
O 35.903 15.573 -31.180
O 242.967 30.459 -21.038
O 49.106 13.934 -28.826
O 178.602 9.017 -4.416
O 182.845 22.749 -21.425
O 227.350 23.551 -3.433
O 236.677 11.331 -20.626
O 207.017 6.350 -18.225
O 42.107 21.128 -22.121
O 183.486 6.465 -27.532
O 238.138 11.849 -30.609
O 55.865 29.545 -28.590
O 38.967 8.542 -22.865
O 198.362 3.709 -30.160
O 207.037 11.988 -22.764
O 241.765 10.950 -31.111
O 204.169 29.296 -11.531
O 209.688 5.646 -14.693
O 213.628 9.538 -22.154
O 203.357 14.094 -19.133
O 194.390 10.245 -15.214
O 55.077 9.788 -17.095
O 189.920 10.018 -7.468
O 54.910 7.074 -16.360
O 188.009 10.757 -18.817
O 183.174 14.986 -20.158
O 202.401 24.064 -25.894
O 183.130 27.254 -28.518
O 247.843 17.696 -23.754
O 214.546 14.581 -18.909
O 234.337 1.237 -28.860
O 226.354 14.155 -30.662
O 228.149 12.944 -27.148
O 213.893 10.260 -1.042
O 34.441 20.337 -27.018
O 226.057 14.453 -5.747
O 193.510 29.448 -26.582
O 215.527 14.054 -15.241
O 235.596 0.784 -22.365
O 213.179 21.697 -17.880
O 195.594 30.521 -1.922
O 222.372 3.721 -29.170
O 45.211 21.643 -17.126
O 199.406 5.739 -3.710
O 47.720 21.404 -19.881
O 245.282 18.691 -29.544
O 185.424 5.716 -2.978
O 215.072 18.933 -3.943
O 189.644 10.680 -30.554
O 239.706 25.327 -29.868
O 38.491 14.955 -30.369
O 238.456 15.891 -15.419
O 193.110 23.785 -8.259
O 51.311 16.693 -30.538
O 187.575 28.485 -12.151
O 192.614 17.381 -11.339
O 241.550 14.508 -11.875
O 233.472 10.738 -12.403
O 49.990 14.744 -10.811
O 43.108 3.766 -20.892
O 203.751 12.750 -9.050
O 247.252 25.704 -20.377
O 179.723 6.096 -18.871
O 43.573 7.348 -5.917
O 41.674 11.274 -15.566
O 200.585 15.966 -12.476
O 43.987 12.729 -14.130
O 41.237 10.778 -9.104
O 53.032 14.515 -30.702
O 248.565 17.778 -20.505
O 243.737 12.989 -10.827
O 37.917 20.100 -30.754
O 174.166 10.529 -31.324
O 180.742 14.029 -20.088
O 211.809 23.729 -19.108
O 183.050 5.512 -30.904
O 208.259 13.517 -2.792
O 58.011 28.403 -0.268
O 199.652 22.218 -10.422
O 220.161 13.759 -17.340
O 243.065 15.247 -14.600
O 48.639 4.235 -23.258
O 208.530 19.724 -23.100
O 222.655 4.977 -16.938
O 238.901 10.479 -19.108
O 206.344 31.415 -19.278
O 212.577 13.697 -30.084
O 201.131 0.558 -12.996
O 214.614 30.473 -3.514
O 42.269 10.311 -29.622
O 42.395 27.627 -29.095
O 196.267 1.436 -0.752
O 234.236 24.930 -30.385
O 43.885 6.182 -14.187
O 52.067 29.936 -2.256
O 182.029 27.809 -4.999
O 190.323 0.777 -2.882
O 208.801 16.978 -0.349
O 241.277 27.834 -21.946
O 53.889 4.600 -6.973
O 228.194 17.559 -12.042
O 190.474 29.315 -6.517
O 239.351 30.042 -28.805
O 211.954 19.857 -9.400
O 43.762 6.778 -23.959
O 190.705 14.625 -30.810
O 41.942 6.332 -16.228
O 192.573 25.318 -30.454
O 199.326 26.027 -20.632
O 188.758 9.500 -25.141
O 213.247 1.344 -21.189
O 190.517 22.020 -18.217
O 45.777 26.260 -30.552
O 222.295 11.625 -4.866
O 177.131 8.012 -29.805
O 198.980 7.974 -30.139
O 219.582 2.884 -29.561
O 187.299 26.166 -25.401
O 208.385 26.079 -28.162
O 202.491 10.762 -11.132
O 50.034 12.272 -18.522
O 226.548 30.004 -15.939
O 181.085 9.681 -30.806
O 198.759 3.075 -26.154
O 244.533 20.098 -4.809
O 244.982 3.438 -23.024
O 46.756 24.744 -15.690
O 208.097 4.945 -5.185
O 216.049 29.929 -9.531
O 247.933 9.560 -26.991
O 188.128 0.985 -20.185
O 183.655 13.953 -5.933
O 181.706 15.324 -13.950
O 237.845 22.920 -21.560
O 236.077 14.188 -17.451
O 52.934 25.931 -25.542
O 225.460 9.395 -22.013
O 236.108 5.229 -23.788
O 45.990 8.322 -9.008
O 206.998 23.330 -19.503
O 191.692 3.693 -21.613
O 189.171 18.853 -24.509
O 232.632 19.317 -26.559
O 245.160 19.976 -9.071
O 53.346 31.316 -19.199
O 215.615 16.720 -9.151
O 33.475 29.923 -26.281
O 246.505 1.035 -22.452
O 182.562 23.985 -17.472
O 186.336 21.927 -14.624
O 223.933 30.094 -29.020
O 179.717 9.043 -28.638
O 34.381 22.566 -2.426
O 191.055 21.982 -22.860
O 38.302 27.806 -16.968
O 239.139 7.729 -18.914
O 230.603 26.612 -26.336
O 199.101 30.855 -2.849
O 194.374 20.403 -30.626
O 45.057 14.915 -3.919
O 38.800 14.113 -26.211
O 48.233 1.802 -26.324
O 224.225 0.289 -2.841
O 200.054 5.425 -6.940
O 181.890 2.214 -8.097
O 234.543 4.335 -10.323
O 53.994 20.916 -25.045
O 50.008 16.231 -16.020
O 40.522 29.552 -30.605
O 55.614 15.615 -3.703
O 41.485 30.936 -12.848
O 38.065 26.466 -10.958
O 223.176 24.140 -3.890
O 212.596 20.928 -21.584
O 44.913 3.347 -28.096
O 195.222 7.952 -3.196
O 213.992 18.478 -25.111
O 212.733 8.132 -24.397
O 54.143 18.700 -7.185
O 42.996 17.879 -25.892
O 235.312 8.789 -9.568
O 189.664 29.821 -13.243
O 238.711 20.972 -10.298
O 53.777 25.162 -13.258
O 237.358 6.362 -28.166
O 191.675 24.190 -24.840
O 46.055 0.297 -28.248
O 191.933 28.766 -19.225
O 228.088 1.425 -30.788
O 186.603 17.827 -6.653
O 243.873 11.514 -17.786
O 237.396 3.107 -30.352
O 199.333 24.933 -4.116
O 41.005 2.376 -24.024
O 42.867 21.904 -12.706
O 243.847 26.864 -13.227
O 192.991 12.969 -21.955
O 245.749 2.224 -18.170
O 226.908 5.098 -9.312
O 233.623 21.221 -14.853
O 181.717 20.184 -4.997
O 209.589 22.821 -20.522
O 242.963 20.787 -15.872
O 180.564 31.301 -2.846
O 220.895 2.574 -1.924
O 225.728 9.585 -8.214
O 209.450 25.256 -11.379
O 244.942 6.533 -12.107
O 232.968 23.057 -28.669
O 237.399 26.744 -26.511
O 188.948 25.914 -21.242
O 206.365 2.145 -13.862
O 192.727 18.637 -7.529
O 48.028 4.370 -7.202
O 49.486 13.511 -6.431
O 48.772 26.035 -7.272
O 186.130 3.092 -26.548
O 200.768 1.392 -25.819
O 199.728 29.206 -0.844
O 220.135 27.434 -7.940
O 208.112 15.134 -16.110
O 195.791 5.874 -6.240
O 36.121 25.096 -21.509
O 55.495 12.246 -1.560
O 51.553 4.017 -24.468
O 235.040 6.272 -30.112
O 182.904 25.807 -24.984
O 38.276 22.245 -9.422
O 43.747 15.213 -20.693
O 223.239 19.616 -8.238
O 48.701 6.113 -19.580
O 198.145 5.873 -28.377
O 246.407 27.748 -5.946
O 35.728 18.938 -2.853
O 41.050 15.196 -13.304
O 239.115 6.990 -11.500
O 234.582 0.750 -4.572
O 239.651 28.098 -10.085
O 214.850 20.766 -29.526
O 229.582 17.590 -2.151
O 189.764 7.527 -2.890
O 46.898 11.018 -26.878
O 218.740 22.956 -25.969
O 230.497 6.016 -0.036
O 35.383 12.030 -21.650
O 221.589 28.051 -25.165
O 53.359 17.552 -10.902
O 183.908 22.353 -10.893
O 210.835 21.399 -16.460
O 239.292 17.525 -2.246
O 218.388 1.877 -16.303
O 52.129 19.069 -0.336
O 193.458 22.049 -11.310
O 206.980 3.409 -7.158
O 42.407 31.360 -31.085
O 187.376 13.079 -8.100
O 53.645 20.611 -22.183
O 179.258 25.036 -3.372
O 211.488 5.572 -5.813
O 176.696 11.710 -0.416
O 50.796 21.706 -7.218
O 201.136 24.435 -23.388
O 222.532 13.110 -29.513
O 52.685 6.029 -19.664
O 234.137 10.082 -5.026
O 199.419 29.971 -12.657
O 179.379 1.716 -19.805
O 241.024 15.640 -1.395
O 235.495 25.431 -24.361
O 195.558 17.903 -22.079
O 182.467 17.622 -8.029
O 54.315 24.462 -6.828
O 190.169 19.309 -19.885
O 210.960 7.494 -12.100
O 244.042 24.736 -11.015
O 207.134 10.492 -20.442
O 179.271 15.863 -10.072
O 188.159 15.932 -24.950
O 210.155 12.963 -27.080
O 231.950 14.516 -15.792
O 242.001 22.734 -7.820
O 46.667 22.339 -6.957
O 241.214 25.819 -23.692
O 35.353 30.769 -17.622
O 228.351 25.812 -18.938
O 186.800 13.491 -25.034
O 44.199 26.404 -7.720
O 209.021 14.905 -20.467
O 248.504 26.184 -6.528
O 54.572 29.958 -26.062
O 199.678 9.286 -20.903
O 191.248 28.042 -26.557
O 196.026 23.604 -23.827
O 226.972 26.463 -9.097
O 45.212 14.746 -17.146
O 216.514 1.858 -21.742
O 240.830 20.141 -25.805
O 180.663 19.968 -12.181
O 195.906 23.405 -12.711
O 211.520 26.460 -27.178
O 191.315 4.883 -2.118
O 36.484 14.803 -24.919
O 43.834 2.766 -10.394
O 241.966 16.002 -18.927
O 180.345 27.084 -8.034
O 220.114 26.160 -15.325
O 190.074 4.304 -19.147
O 181.037 4.692 -17.089
O 227.058 18.354 -30.008
O 52.745 14.685 -11.187
O 196.340 12.374 -7.731
O 34.757 6.068 -5.311
O 214.945 13.259 -21.922
O 205.671 0.422 -16.387
O 190.099 23.886 -3.682
O 186.396 14.678 -16.888
O 223.346 27.285 -13.164
O 243.971 0.956 -7.071
O 51.038 29.855 -19.526
O 51.702 27.199 -6.293
O 53.219 5.912 -0.518
O 202.575 23.273 -21.318
O 42.904 18.179 -2.693
O 212.664 15.461 -26.699
O 246.327 5.116 -21.325
O 196.932 4.351 -15.229
O 229.930 18.897 -29.659
O 197.247 6.845 -24.085
O 202.222 1.316 -4.964
O 197.405 13.541 -15.380
O 37.807 16.669 -6.565
O 202.707 15.182 -4.608
O 217.008 21.733 -22.970
O 201.743 23.453 -1.185
O 46.696 3.173 -14.199
O 183.494 25.488 -2.273
O 183.466 22.368 -14.857
O 34.905 11.059 -10.231
O 33.942 14.948 -5.071
O 210.248 24.057 -16.497
O 203.367 7.099 -17.144
O 33.743 28.713 -16.958
O 199.168 9.155 -1.852
O 222.465 23.573 -16.612
O 205.568 2.046 -5.000
O 237.293 5.200 -7.257
O 223.877 20.136 -23.179
O 209.828 15.560 -2.486
O 207.902 2.033 -16.724
O 229.935 26.084 -21.406
O 54.732 21.042 -8.243
O 178.630 22.441 -3.933
O 237.729 12.095 -17.052
O 212.923 27.411 -11.536
O 218.295 17.375 -22.678
O 178.558 24.532 -25.906
O 211.799 9.874 -28.593
O 221.784 14.216 -15.151
O 196.714 18.867 -11.414
O 219.801 12.679 -29.365
O 197.558 26.917 -11.232
O 185.847 21.956 -20.464
O 43.581 0.382 -5.776
O 180.415 10.376 -12.503
O 188.909 3.384 -1.700
O 180.492 13.373 -15.530
O 211.472 3.923 -30.801
O 193.134 14.007 -28.237
O 236.569 11.713 -8.020
O 219.302 29.746 -6.654
O 38.981 12.094 -1.688
O 184.567 13.864 -26.909
O 225.985 5.790 -4.902
O 221.455 12.585 -2.428
O 40.573 7.592 -3.065
O 235.289 21.899 -3.200
O 200.834 27.431 -18.567
O 209.444 1.820 -26.594
O 36.604 6.946 -15.753
O 209.749 14.611 -29.703
O 211.751 16.098 -21.705
O 247.823 11.110 -31.247
O 192.291 15.941 -24.855
O 213.742 21.846 -6.952
O 183.445 4.509 -13.516
O 188.247 26.513 -29.756
O 56.684 1.120 -5.927
O 235.510 19.002 -2.877
O 229.104 27.735 -7.721
O 41.726 5.939 -10.384
O 242.813 15.093 -30.101
O 233.870 27.428 -28.224
O 53.083 24.062 -17.230
O 228.715 21.470 -8.042
O 235.071 13.682 -0.317
O 39.105 6.029 -21.592
O 240.841 24.968 -5.415
O 195.426 1.804 -27.034
O 210.384 24.080 -27.671
O 190.471 28.283 -21.619
O 229.518 15.867 -15.137
O 231.513 29.710 -10.380
O 224.840 7.531 -19.254
O 211.938 29.688 -0.149
O 192.794 19.642 -20.445
O 186.152 25.219 -20.262
O 231.876 1.197 -4.884
O 186.023 19.357 -22.588
O 181.054 17.232 -5.123
O 216.316 31.228 -1.479
O 52.292 23.263 -25.681
O 51.888 4.753 -17.353
O 179.193 13.952 -26.736
O 220.521 6.869 -16.302
O 223.258 21.484 -10.661
O 215.415 5.612 -30.563
O 242.057 4.105 -29.133
O 42.849 18.994 -20.383
O 199.486 30.038 -27.691
O 193.934 17.412 -13.775
O 48.846 11.727 -14.075
O 235.437 2.968 -16.146
O 235.636 3.962 -4.317
O 51.384 12.294 -31.392
O 247.827 13.822 -8.675
O 191.734 27.073 -23.898
O 36.131 16.590 -12.200
O 183.521 19.402 -14.762
O 242.263 1.389 -13.077
O 193.465 7.294 -22.834
O 218.741 1.233 -0.369
O 192.761 5.661 -27.915
O 54.305 2.969 -28.936
O 37.877 4.840 -14.380
O 53.334 26.566 -8.330
O 225.908 3.286 -19.423
O 189.196 28.683 -16.118
O 197.498 15.597 -25.286
O 186.259 28.603 -15.472
O 52.543 29.771 -9.364
O 180.536 18.278 -2.174
O 218.726 23.908 -23.407
O 229.505 11.986 -8.700
O 223.815 9.744 -9.996
O 55.058 14.524 -8.988
O 51.205 14.812 -27.187
O 240.789 8.454 -21.303
O 210.341 18.850 -18.200
O 225.004 16.949 -31.269
O 241.561 4.429 -0.269
O 207.718 30.822 -13.836
O 236.213 13.887 -11.118
O 231.775 11.810 -18.835
O 242.167 20.731 -20.977
O 244.182 17.591 -0.695
O 222.450 11.718 -24.896
O 246.822 20.723 -1.835
O 52.202 23.422 -5.486
O 227.987 20.689 -2.969
O 218.696 24.248 -16.745
O 200.789 7.773 -4.842
O 36.853 23.919 -11.106
O 235.385 24.967 -4.665
O 197.253 2.970 -12.803
O 48.194 24.819 -22.281
O 237.164 9.699 -22.838
O 223.279 4.362 -4.306
O 44.147 22.701 -19.788
O 194.959 6.762 -11.699
O 215.893 27.407 -2.700
O 217.678 17.655 -26.670
O 194.796 9.504 -21.824
O 40.907 28.525 -19.982
O 240.263 8.531 -26.297
O 42.007 8.439 -21.316
O 216.256 2.606 -14.553
O 236.428 26.311 -8.385
O 197.209 20.244 -6.270
O 230.744 2.081 -9.842
O 242.230 21.305 -28.108
O 201.230 27.793 -6.878
O 50.050 30.784 -24.474
O 234.279 20.451 -28.435
O 243.926 12.958 -22.262
O 219.937 22.202 -28.929
O 188.210 5.496 -13.890
O 35.571 22.644 -22.487
O 184.470 29.669 -2.507
O 193.999 1.927 -30.482
O 244.937 2.951 -3.272
O 35.428 8.620 -27.834
O 48.571 10.021 -21.733
O 242.449 1.211 -29.030
O 187.303 24.074 -4.032
O 242.621 26.221 -26.149
O 181.827 8.426 -26.773
O 208.255 10.262 -15.537
O 196.775 4.941 -3.800
O 48.692 29.142 -4.289
O 245.335 16.438 -15.642
O 203.552 26.969 -20.434
O 237.905 26.547 -14.031
O 181.059 27.494 -30.308
O 184.852 16.341 -12.680
O 38.780 19.052 -12.029
O 39.243 7.049 -7.886
O 210.429 0.205 -21.860
O 237.732 14.625 -19.577
O 37.828 0.871 -30.581
O 196.352 22.518 -3.630
O 222.032 6.344 -28.046
O 195.434 19.559 -15.719
O 36.629 10.550 -17.035
O 189.948 23.384 -20.718
O 227.541 13.164 -16.717
O 205.740 10.557 -26.435
O 229.352 1.317 -20.766
O 53.479 12.874 -13.228
O 248.943 28.469 -22.250
O 204.537 31.228 -6.077
O 186.133 31.029 -16.578
O 247.870 13.366 -5.108
O 239.173 22.616 -27.666
O 205.567 6.344 -15.507
O 221.992 11.666 -8.487
O 45.906 9.412 -1.754
O 215.888 3.208 -1.073
O 56.494 21.979 -5.918
O 211.326 5.647 -17.793
O 211.244 24.249 -30.300
O 192.964 2.487 -25.144
O 215.292 19.557 -12.815
O 202.178 13.763 -13.915
O 244.573 4.890 -30.238
O 52.268 9.186 -8.455
O 202.644 26.536 -27.262
O 204.621 24.363 -19.670
O 190.025 24.323 -10.271
O 242.925 4.729 -15.549
O 45.359 29.863 -7.955
O 53.286 6.838 -9.856
O 210.576 7.684 -16.164
O 225.768 7.062 -7.304
O 228.100 4.010 -5.068
O 240.285 25.468 -26.990
O 43.311 16.550 -16.544
O 223.038 4.020 -0.643
O 210.084 8.010 -2.922
O 240.617 16.728 -14.112
O 181.758 16.050 -23.848
O 218.119 3.031 -27.215
O 56.949 5.027 -10.714
O 189.631 16.746 -14.446
O 190.052 24.269 -27.003
O 203.274 29.010 -25.897
O 196.733 19.005 -28.305
O 191.522 1.663 -5.254
O 184.799 5.496 -22.668
O 34.632 6.575 -2.249
O 241.449 30.467 -14.358
O 55.777 3.685 -2.721
O 244.706 5.247 -4.647
O 209.871 28.256 -23.692
O 190.092 4.623 -6.414
O 195.804 23.192 -8.006
O 230.376 23.079 -11.805
O 188.868 8.071 -18.935
O 247.022 5.782 -1.905
O 41.367 1.192 -26.351
O 230.327 2.930 -30.080
O 231.555 25.402 -15.255
O 234.896 0.385 -18.577
O 234.114 25.579 -16.188
O 204.264 17.198 -11.515
O 189.671 0.151 -0.158
O 52.028 1.361 -5.784
O 218.107 15.146 -14.849
O 34.957 22.223 -9.355
O 180.479 7.641 -11.946
O 182.025 9.845 -14.688
O 227.648 22.718 -0.817
O 34.962 1.821 -3.015
O 225.113 16.851 -14.041
O 208.568 18.865 -15.439
O 36.075 21.252 -29.136
O 207.706 31.005 -1.338
O 194.550 26.796 -24.622
O 218.959 3.602 -18.307
O 215.078 27.155 -21.549
O 230.374 31.070 -12.567
O 38.568 29.948 -10.345
O 232.348 19.651 -30.641
O 197.035 0.020 -9.021
O 196.511 16.363 -9.028
O 202.166 24.110 -3.858
O 193.188 24.451 -15.220
O 226.155 29.464 -20.780
O 33.938 14.132 -29.076
O 209.649 7.414 -0.325
O 195.106 5.648 -26.534
O 231.280 9.234 -22.623
O 231.625 2.491 -2.565
O 244.777 7.081 -28.523
O 238.413 3.827 -27.389
O 230.596 9.135 -18.715
O 186.271 29.891 -4.665
O 213.411 25.418 -9.679
O 182.834 23.166 -5.008
O 237.780 0.799 -18.522
O 38.094 13.959 -10.415
O 236.799 6.238 -9.923
O 188.587 23.706 -30.033
O 51.914 2.413 -30.972
O 34.709 26.626 0.026
O 237.269 20.985 -23.402
O 231.073 10.262 -16.292
O 193.307 7.356 -15.771
O 237.910 6.759 -22.411
O 233.067 30.407 -27.922
O 194.090 26.334 -3.242
O 204.548 28.580 -18.164
O 42.674 16.837 -5.441
O 224.319 14.282 -11.102
O 238.407 21.232 -16.806
O 200.565 26.313 -14.252
O 39.439 10.093 -16.642
O 180.659 22.090 -18.426
O 50.132 21.078 -22.370
O 244.598 24.157 -26.717
O 206.414 24.971 -9.766
O 232.919 11.771 -9.519
O 40.370 3.554 -21.373
O 45.096 18.738 -27.208
O 34.306 16.006 -23.825
O 196.648 31.267 -24.816
O 188.611 12.572 -29.032
O 46.559 24.266 -12.964
O 43.203 13.525 -0.305
O 55.644 25.789 -2.608
O 183.005 0.371 -3.780
O 207.304 12.516 -17.003
O 192.416 10.745 -23.747
O 199.785 3.320 -15.956
O 224.189 11.632 -12.089
O 54.909 0.991 -24.304
O 52.250 21.707 -15.631
O 238.180 10.112 -5.212
O 195.102 21.168 -23.222
O 217.464 14.533 -20.459
O 38.399 1.904 -22.406
O 186.043 18.616 -0.541
O 217.060 21.068 -26.436
O 234.985 7.079 -1.334
O 185.343 6.363 -29.619
O 242.744 18.787 -13.626
O 217.512 30.644 -23.423
O 46.422 6.771 -6.590
O 175.770 8.804 -1.048
O 214.205 21.183 -24.062
O 44.288 22.878 -28.485
O 229.647 26.995 -4.730
O 193.149 17.034 -28.107
O 244.885 11.420 -13.087
O 215.730 26.685 -24.515
O 49.602 26.697 -14.128
O 233.087 18.759 -19.771
O 227.189 17.283 -18.388
O 212.259 18.481 -20.282
O 53.938 19.112 -28.274
O 216.267 8.211 -23.353
O 184.246 19.498 -20.380
O 240.488 20.781 -23.178
O 212.244 28.788 -21.080
O 241.192 10.798 -14.832
O 195.985 9.496 -8.103
O 38.304 31.300 -24.781
O 242.686 8.672 -29.620
O 34.483 4.376 -21.672
O 191.944 10.720 -0.508
O 236.644 7.715 -20.235
O 49.156 26.009 -16.686
O 44.542 1.899 -17.270
O 202.133 22.629 -15.498
O 213.920 25.487 -30.522
O 183.817 29.897 -6.084
O 209.505 12.463 -19.435
O 203.780 3.158 -14.714
O 204.088 4.823 -10.403
O 54.457 9.227 -6.120
O 36.013 10.612 -7.502
O 236.875 16.927 -3.795
O 239.101 14.481 -26.175
O 216.618 10.294 -29.057
O 222.120 8.868 -0.558
O 42.497 31.387 -22.731
O 211.079 14.547 -5.923
O 52.897 14.003 -24.978
O 184.073 10.591 -18.274
O 222.373 7.639 -6.881
O 191.206 5.229 -23.962
O 203.606 14.561 -24.181
O 205.424 26.794 -24.077
O 208.936 17.723 -12.090
O 216.875 25.896 -17.994
O 191.284 9.715 -15.396
O 187.532 29.495 -9.530
O 200.618 16.993 -18.876
O 49.585 11.317 -29.706
O 44.457 0.579 -14.893
O 217.866 17.943 -1.380
O 221.363 21.586 -2.363
O 244.590 4.499 -19.087
O 203.874 15.392 -15.123
O 41.183 13.206 -21.941
O 213.024 2.564 -1.397
O 187.755 11.759 -26.696
O 241.859 3.189 -17.583
O 33.633 4.401 -7.269
O 34.295 0.931 -19.640
O 235.056 25.316 -12.684
O 201.590 15.534 -9.400
O 220.584 7.629 -19.108
O 38.040 8.406 -19.466
O 194.833 11.175 -25.469
O 38.962 1.805 -1.538
O 225.405 1.035 -29.907
O 214.264 22.002 -2.325
O 228.038 14.539 -23.854
O 35.842 10.890 -4.275
O 241.815 25.978 -15.076
O 188.661 19.853 -22.017
O 217.507 12.226 -18.730
O 53.632 7.464 -2.846
O 194.066 16.993 -3.806
O 198.306 2.932 -7.393
O 37.730 1.137 -17.683
O 195.659 20.901 -26.268
O 241.293 20.299 -11.626
O 204.022 28.575 -7.809
O 218.480 23.772 -8.858
O 44.577 18.645 -17.492
O 235.225 28.921 -7.913
O 231.706 5.358 -16.746
O 226.841 23.593 -6.049
O 213.807 1.997 -17.611
O 234.765 3.214 -30.932
O 47.229 16.339 -10.816
O 210.893 16.104 -8.645
O 239.493 28.272 -18.131
O 194.880 24.822 -17.544
O 181.875 2.934 -4.331
O 39.499 10.043 -11.122
O 196.459 20.761 -13.546
O 232.564 24.169 -13.110
O 214.358 27.884 -0.494
O 202.343 8.034 -27.445
O 232.881 2.969 -17.158
O 233.855 18.603 -16.912
O 41.831 11.304 -0.776
O 190.394 12.039 -12.956
O 200.986 16.844 -6.385
O 200.832 20.297 -19.347
O 43.730 13.912 -10.138
O 210.157 0.615 -4.757
O 204.733 5.287 -21.466
O 198.983 3.350 -21.997
O 241.106 30.201 -11.657
O 228.131 4.964 -12.651
O 214.679 23.150 -10.416
O 208.221 10.341 -30.201
O 40.927 20.563 -11.457
O 43.800 20.141 -29.299
O 50.137 7.529 -15.429
O 212.317 18.557 -12.973
O 196.689 1.263 -22.600
O 197.734 18.006 -16.581
O 179.673 7.026 -22.680
O 197.525 10.230 -31.407
O 199.802 9.429 -27.234
O 223.519 18.774 -27.941
O 185.271 8.055 -22.359
O 192.179 0.291 -27.408
O 195.758 24.489 -20.908
O 206.708 4.318 -23.009
O 36.591 28.706 -20.359
O 247.799 12.881 -15.884
O 216.236 9.174 -16.430
O 34.607 5.910 -23.847
O 44.456 14.233 -23.214
O 199.407 6.782 -22.201
O 41.740 13.495 -29.151
O 35.802 22.021 -25.203
O 193.631 29.040 -8.639
O 200.154 14.598 -15.682
O 51.745 3.965 -2.127
O 36.294 23.796 -30.659
O 33.919 19.565 -15.621
O 212.052 16.739 -24.291
O 235.739 2.847 -24.994
O 238.828 4.613 -0.774
O 242.557 14.115 -3.669
O 241.338 31.200 -2.089
O 44.385 16.643 -28.617
O 203.279 16.740 -21.993
O 37.724 31.231 -4.058
O 198.574 6.937 -11.949
O 55.891 26.991 -27.781
O 197.223 11.615 -5.262
O 197.187 0.224 -13.016
O 36.918 3.544 -24.294
O 205.358 7.752 -4.139
O 200.817 10.248 -17.015
O 46.151 10.683 -16.392
O 203.780 12.931 -21.613
O 240.063 15.402 -29.924
O 190.554 21.642 -13.733
O 220.796 26.852 -29.479
O 198.372 28.296 -7.647
O 34.787 1.632 -0.357
O 248.725 15.855 -1.591
O 178.993 13.795 -11.927
O 45.395 3.531 -22.157
O 185.293 26.804 -3.784
O 197.744 18.915 -0.482
O 240.545 31.140 -7.625
O 198.086 1.741 -19.218
O 43.924 10.202 -12.466
O 197.994 15.423 -22.616
O 213.643 16.495 -6.722
O 226.637 15.323 -12.282
O 39.108 12.779 -28.600
O 218.355 8.636 -8.800
O 217.381 30.067 -14.613
O 248.798 20.523 -21.251
O 249.404 10.379 -21.530
O 214.982 12.257 -17.738
O 244.015 22.951 -29.984
O 243.740 28.955 -11.428
O 205.709 21.362 -12.914
O 246.657 17.970 -18.682
O 224.615 19.149 -2.042
O 240.762 26.435 -12.298
O 38.534 4.156 -17.007
O 225.907 14.210 -2.124
O 245.652 29.975 -2.236
O 206.064 8.517 -9.342
O 239.612 25.468 -9.023
O 212.478 25.798 -21.188
O 228.127 8.918 -16.576
O 214.676 11.864 -30.362
O 45.953 7.868 -30.909
O 222.670 23.070 -19.489
O 189.394 8.350 -29.357
O 183.839 12.721 -15.879
O 226.533 23.925 -19.734
O 223.929 15.653 -16.458
O 248.737 0.538 -4.090
O 192.377 10.968 -18.295
O 190.230 0.966 -10.692
O 207.526 10.678 -11.112
O 244.199 9.164 -11.410
O 210.786 13.858 -24.410
O 47.897 16.573 -8.055
O 199.239 17.486 -2.197
O 238.834 24.017 -25.234
O 189.003 24.861 -8.028
O 181.435 11.607 -21.792
O 196.415 28.707 -27.332
O 230.082 28.013 -23.790
O 191.164 1.543 -29.658
O 187.049 1.062 -0.626
O 231.739 7.535 -28.183
O 53.162 19.599 -17.506
O 224.040 29.807 -14.940
O 53.731 30.419 -29.936
O 47.187 22.197 -29.704
O 183.223 3.166 -1.051
O 235.536 27.593 -14.956
O 183.865 30.220 -18.368
O 40.552 23.102 -10.501
O 242.711 28.023 -8.598
O 248.267 26.818 -15.852
O 230.128 3.374 -24.500
O 234.987 29.083 -4.940
O 192.249 4.015 -15.354
O 35.681 17.609 -7.498
O 232.652 13.610 -25.654
O 48.340 23.093 -4.886
O 247.548 25.819 -2.011
O 247.458 4.371 -17.509
O 45.787 13.805 -30.852
O 181.000 1.250 -31.127
O 201.198 29.782 -20.337
O 205.939 22.315 -26.286
O 199.005 0.572 -16.456
O 37.154 27.473 -22.829
O 240.835 27.077 -1.368
O 229.156 14.805 -8.016
O 43.253 0.320 -8.615
O 238.936 11.609 -2.197
O 39.173 10.446 -20.939
O 247.068 20.558 -27.023
O 206.360 22.051 -29.282
O 53.034 5.470 -28.607
O 221.104 17.572 -4.884
O 38.317 24.445 -3.937
O 48.595 4.484 -4.535
O 36.873 27.271 -5.230
O 206.215 15.482 -13.808
O 211.588 13.901 -1.169
O 194.428 8.431 -6.130
O 214.336 0.371 -11.253
O 189.843 17.411 -1.481
O 176.716 10.174 -3.025
O 193.313 20.505 -25.061
O 191.733 4.965 -9.072
O 227.947 5.827 -21.419
O 47.381 4.474 -27.165
O 186.860 13.752 -0.277
O 206.013 5.859 -25.967
O 221.842 30.226 -22.561
O 221.940 5.965 -9.080
O 198.564 17.123 -27.306
O 226.184 6.238 -31.049
O 50.587 5.569 -21.667
O 52.449 30.091 -23.716
O 228.404 28.918 -28.609
O 186.542 18.168 -17.739
O 246.075 25.553 -17.165
O 188.896 3.016 -30.224
O 37.219 8.663 -4.547
O 179.972 21.831 -6.827
O 243.214 28.505 -27.347
O 186.542 18.389 -10.776
O 189.530 19.050 -12.829
O 52.880 23.113 -8.662
O 209.298 11.051 -3.864
O 226.457 7.296 -2.776
O 248.396 22.548 -25.497
O 218.519 18.726 -9.581
O 37.673 8.052 -1.893
O 201.521 12.273 -30.668
O 212.948 1.224 -14.057
O 215.389 22.063 -20.824
O 196.037 2.286 -17.144
O 211.232 20.982 -12.059
O 226.032 20.646 -17.369
O 54.467 2.569 -5.232
O 224.114 24.076 -0.490
O 247.336 3.956 -11.611
O 179.785 15.578 -0.678
O 237.390 26.735 -11.306
O 198.601 23.403 -20.211
O 177.531 16.238 -21.930
O 222.757 8.875 -20.388
O 192.645 16.049 -19.662
O 40.545 15.904 -17.012
O 232.817 7.939 -13.102
O 223.447 8.373 -4.403
O 41.498 23.743 -7.186
O 48.145 12.538 -16.690
O 237.616 7.688 -2.715
O 206.588 25.660 -21.588
O 213.556 23.520 -4.649
O 51.407 27.802 -0.564
O 35.564 24.985 -13.008
O 249.414 24.359 -0.377
O 231.108 17.481 -7.976
O 210.593 23.708 -22.842
O 182.285 23.224 -24.076
O 215.677 12.541 -3.296
O 214.581 16.242 -3.680
O 179.608 7.321 -25.380
O 244.804 10.916 -9.223
O 209.279 3.255 -10.142
O 238.723 23.685 -10.838
O 50.376 27.922 -9.377
O 48.572 11.603 -11.166
O 235.086 26.828 -19.933
O 187.409 8.899 -5.120
O 240.060 31.405 -24.402
O 43.395 25.726 -20.014
O 47.349 17.425 -21.738
O 246.401 29.569 -16.440
O 237.700 23.454 -30.213
O 201.683 4.596 -22.091
O 220.526 5.147 -4.851
O 237.014 14.875 -30.052
O 215.524 5.357 -15.002
O 44.176 27.521 -1.551
O 207.105 17.514 -23.812
O 223.990 31.046 -12.079
O 177.614 14.079 -4.722
O 246.555 9.427 -29.505
O 242.403 22.333 -4.934
O 189.698 21.396 -6.089
O 46.912 6.119 -16.613
O 58.950 23.839 -3.012
O 244.518 22.202 -1.062
O 205.950 30.937 -28.827
O 57.162 29.671 -2.665
O 51.478 28.330 -21.552
O 182.872 8.733 -5.436
O 227.215 3.904 -0.769
O 41.109 13.229 -11.079
O 197.684 8.483 -19.233
O 51.995 25.500 -3.373
O 35.515 26.927 -2.812
O 199.170 23.150 -1.642
O 36.800 13.480 -12.731
O 50.589 23.227 -18.092
O 211.855 31.367 -17.366
O 184.434 4.398 -5.759
O 242.499 0.570 -23.426
O 56.828 28.333 -5.191
O 227.776 30.010 -23.115
O 221.562 23.190 -23.348
O 182.999 1.417 -10.819
O 214.760 20.435 -9.851
O 221.387 17.558 -9.425
O 247.270 1.176 -29.219
O 39.837 27.250 -22.059
O 202.865 11.419 -6.718
O 214.264 22.683 -15.373
O 228.765 7.694 -1.316
O 216.444 11.705 -26.110
O 193.519 2.629 -8.463
O 198.058 1.322 -28.097
O 248.116 12.567 -10.998
O 175.422 10.190 -28.752
O 49.726 0.829 -30.860
O 50.723 17.277 -13.699
O 50.045 22.492 -29.980
O 203.185 4.186 -4.988
O 241.854 13.476 -20.603
O 43.339 25.145 -29.863
O 198.524 28.786 -17.593
O 236.198 30.794 -31.023
O 232.099 21.041 -21.116
O 196.565 26.972 -13.731
O 217.970 8.733 -4.100
O 43.781 15.567 -13.878
O 240.711 15.803 -21.514
O 57.135 19.869 -29.041
O 246.512 26.701 -30.856
O 187.985 27.616 -18.603
O 246.109 24.624 -28.983
O 187.685 3.423 -6.597
O 217.349 0.000 -7.652
O 205.533 11.249 -5.632
O 241.863 24.394 -31.317
O 41.296 19.128 -23.994
O 186.225 9.441 -15.873
O 51.983 18.558 -21.191
O 236.932 9.475 -31.392
O 202.073 27.085 -3.389
O 215.741 9.920 -3.087
O 34.603 24.033 -6.998
O 230.205 26.130 -1.459
O 186.459 6.393 -6.160
O 206.275 14.487 -21.449
O 189.260 14.744 -12.639
O 204.410 2.017 -11.368
O 41.641 16.108 -29.577
O 211.198 26.409 -18.065
O 223.275 10.000 -16.299
O 236.787 24.219 -27.416
O 199.358 11.932 -18.571
O 201.053 23.172 -18.939
O 189.272 15.953 -3.664
O 196.196 15.477 -13.812
O 217.931 29.174 -2.228
O 218.333 5.215 -15.878
O 197.086 24.323 -5.900
O 192.196 28.470 -2.906
O 242.337 27.800 -29.666
O 212.985 12.135 -27.581
O 232.692 11.973 -6.509
O 242.994 14.964 -27.312
O 249.476 17.731 -28.212
O 197.234 4.165 -24.000
O 196.662 11.715 -10.620
O 198.019 10.973 -15.200
O 216.547 5.213 -10.763
O 37.591 15.403 -22.610
O 54.175 18.212 -4.455
O 238.095 24.125 -7.096
O 40.363 22.349 -17.724
O 235.689 20.704 -16.727
O 247.370 29.564 -4.175
O 206.843 14.280 -27.569
O 238.107 27.515 -0.828
O 201.333 9.047 -0.354
O 48.136 1.343 -7.497
O 54.950 29.610 -17.621
O 204.508 13.774 -28.562
O 207.984 11.195 -27.478
O 211.006 21.332 -26.639
O 225.158 17.332 -23.524
O 180.618 10.325 -3.356
O 226.666 11.051 -18.216
O 48.787 23.323 -8.269
O 249.342 8.295 -12.843
O 232.138 22.270 -9.595
O 211.291 25.850 -6.450
O 213.013 11.761 -24.021
O 194.602 13.597 -30.431
O 180.347 3.011 -1.990
O 245.763 23.072 -4.903
O 219.991 16.239 -0.738
O 248.924 28.125 -12.229
O 40.120 8.676 -29.211
O 223.487 11.392 -22.506
O 52.282 1.166 -28.468
O 183.865 17.318 -18.810
O 216.429 18.215 -17.709
O 245.578 21.357 -15.125
O 52.997 4.116 -9.608
O 44.027 10.279 -9.835
O 214.828 31.195 -6.309
O 50.081 17.804 -18.464
O 218.764 4.498 -13.278
O 194.878 18.216 -19.285
O 224.621 15.016 -8.233
O 47.239 19.173 -25.718
O 236.286 18.869 -10.281
O 222.463 28.427 -1.494
O 34.629 8.532 -17.279
O 202.507 22.235 -10.124
O 232.350 2.967 -22.389
O 48.083 6.688 -25.582
O 219.365 0.862 -22.372
O 206.809 12.614 -9.428
O 35.227 6.618 -13.202
O 212.026 3.639 -28.034
O 196.890 16.243 -18.488
O 45.275 0.881 -21.333
O 232.072 1.732 -13.678
O 208.891 25.710 -23.407
O 231.434 30.980 -7.558
O 247.349 23.749 -7.165
O 190.684 21.698 -10.823
O 181.107 25.409 -5.549
O 233.959 4.147 -7.565
O 200.301 11.026 -13.604
O 244.189 11.838 -6.721
O 239.156 2.478 -10.436
O 206.447 15.621 -1.300
O 206.879 19.793 -0.374
O 43.369 16.523 -9.289
O 236.470 6.412 -4.916
O 208.613 5.016 -25.388
O 184.179 2.011 -17.887
O 218.590 16.883 -11.700
O 203.799 6.978 -23.635
O 242.988 10.502 -20.387
O 188.699 21.529 -15.783
O 34.997 26.935 -28.661
O 225.183 10.012 -14.123
O 245.560 30.961 -12.574
O 217.526 11.038 -7.633
O 199.646 5.104 -18.137
O 195.813 2.714 -20.412
O 37.632 19.975 -6.828
O 54.611 19.612 -1.818
O 246.866 2.014 -5.876
O 37.880 28.235 -27.128
O 220.958 11.725 -21.176
O 54.882 11.855 -9.628
O 186.921 16.225 -30.718
O 211.971 5.878 -20.986
O 48.996 11.425 -2.599
O 224.321 6.880 -22.269
O 35.034 14.866 -2.434
O 34.086 29.790 -10.525
O 207.887 1.157 -3.445
O 46.371 11.503 -8.616
O 183.542 10.531 -23.336
O 40.941 7.716 -18.831
O 239.586 30.548 -19.616
O 244.215 14.003 -1.028
O 183.474 26.323 -12.990
O 202.103 6.861 -30.272
O 228.556 8.449 -22.277
O 40.410 3.283 -27.761
O 35.922 2.852 -26.851
O 186.674 23.603 -10.862
O 235.999 24.841 -21.722
O 224.200 3.166 -15.379
O 180.594 7.544 -1.481
O 221.112 16.826 -22.623
O 243.276 23.780 -21.084
O 184.236 18.555 -3.800
O 184.799 24.592 -16.245
O 202.315 21.696 -27.514
O 225.731 11.790 -6.012
O 217.408 30.809 -11.799
O 234.219 21.622 -19.243
O 240.940 17.274 -10.643
O 223.868 7.054 -1.737
O 43.252 24.145 -26.415
O 246.434 26.607 -14.028
O 248.514 2.468 -21.029
O 231.923 16.160 -3.699
O 220.725 19.437 -12.233
O 46.407 10.944 -3.997
O 200.317 13.136 -9.640
O 52.958 21.506 -3.961
O 218.773 10.702 -30.956
O 230.074 13.582 -17.806
O 220.472 13.657 -25.115
O 182.281 17.564 -26.277
O 211.266 11.313 -21.257
O 53.782 26.683 -31.273
O 54.690 10.537 -12.325
O 227.072 1.259 -6.094
O 233.468 5.559 -21.193
O 213.885 3.963 -20.377
O 244.829 9.215 -0.598
O 215.812 24.746 -20.360
O 202.924 25.089 -30.732
O 42.810 1.882 -12.926
O 51.493 23.959 -28.082
O 198.493 25.926 -29.311
O 233.437 16.052 -24.616
O 207.982 5.384 -30.404
O 194.398 29.586 -23.859
O 55.826 8.901 -0.027
O 183.754 21.074 -23.948
O 54.769 30.381 -1.374
O 231.582 22.416 -16.716
O 212.756 19.190 -6.780
O 233.617 2.395 -19.788
O 219.912 28.725 -19.798
O 179.678 2.959 -15.129
O 214.372 29.642 -12.797
O 185.957 6.203 -10.769
O 187.452 26.552 -9.451
O 46.573 22.058 -25.544
O 220.065 13.883 -5.840
O 191.925 27.022 -9.017
O 228.625 10.248 -30.325
O 43.576 10.593 -18.828
O 181.495 20.241 -26.117
O 190.273 12.125 -15.698
O 200.768 26.685 -0.778
O 186.036 12.865 -5.016
O 232.183 14.162 -21.391
O 209.759 4.119 -19.934
O 39.893 9.773 -4.781
O 199.638 28.487 -10.460
O 216.956 12.486 -13.499
O 54.815 22.517 -2.416
O 215.049 0.340 -15.688
O 220.217 1.420 -19.774
O 209.249 0.611 -30.332
O 187.841 2.304 -22.727
O 227.467 26.167 -29.263
O 200.781 14.342 -18.361
O 221.997 11.565 -14.006
O 53.593 5.690 -25.946
O 211.610 17.845 -31.095
O 247.685 17.180 -30.409
O 52.130 30.957 -13.869
O 186.779 8.301 -28.232
O 200.698 27.537 -28.935
O 34.218 18.661 -11.821
O 216.233 13.018 -0.636
O 227.584 30.778 -12.435
O 37.422 20.852 -4.166
O 51.071 16.801 -24.270
O 190.298 25.124 -18.041
O 36.140 27.339 -25.331
O 238.030 18.982 -20.455
O 196.610 6.238 -9.816
O 232.025 25.235 -4.060
O 48.015 12.378 -20.367
O 178.637 11.432 -14.451
O 56.779 8.861 -7.748
O 37.825 25.921 -29.345
O 213.450 22.925 -12.729
O 46.894 15.454 -23.904
O 198.256 17.280 -20.657
O 41.007 22.293 -30.497
O 186.779 10.566 -0.557
O 230.636 20.675 -3.064
O 218.442 8.979 -14.633
O 244.168 17.236 -18.104
O 218.584 21.805 -13.270
O 181.812 14.125 -25.599
O 54.126 13.404 -4.521
O 238.825 15.530 -10.236
O 217.173 7.850 -27.370
O 240.073 3.412 -25.201
O 206.279 29.426 -9.152
O 39.676 23.629 -1.341
O 229.386 15.642 -19.390
O 236.003 28.145 -24.242
O 196.656 23.657 -26.948
O 246.702 4.228 -8.978
O 42.389 3.528 -2.359
O 201.118 30.581 -7.333
O 230.760 1.350 -16.128
O 240.954 13.320 -17.953
O 178.333 4.791 -1.148
O 184.078 19.637 -11.309
O 38.316 12.150 -4.245
O 48.706 1.616 -21.866
O 218.388 5.638 -25.740
O 208.180 2.494 -21.483
O 235.613 18.905 -22.405
O 189.310 10.782 -3.892
O 39.539 2.452 -8.578
O 54.698 1.591 -0.622
O 192.250 14.494 -7.826
O 198.301 16.631 -11.099
O 212.700 14.352 -10.007
O 248.480 30.015 -18.789
O 227.741 19.923 -21.409
O 194.598 18.697 -9.607
O 241.752 27.328 -6.132
O 45.072 16.560 -6.962
O 221.232 6.138 -2.478
O 240.995 20.332 -0.978
O 227.155 19.924 -13.326
O 205.801 29.940 -26.161
O 220.322 1.665 -10.878
O 235.663 14.472 -3.003
O 195.731 7.071 -14.350
O 190.822 7.512 -25.999
O 232.869 17.821 -10.042
O 54.385 23.820 -10.888
O 198.280 24.108 -11.769
O 242.646 2.409 -25.558
O 35.354 8.542 -21.141
O 233.956 8.022 -22.044
O 196.696 12.803 -21.822
O 244.697 6.562 -0.973
O 40.035 1.774 -16.211
O 179.777 9.561 -21.118
O 184.098 20.376 -1.281
O 222.588 13.547 -6.726
O 209.737 25.245 -1.009
O 48.670 21.984 -10.934
O 242.766 12.445 -28.480
O 184.424 15.483 -22.848
O 210.580 7.912 -9.329
O 193.563 3.044 -13.173
O 226.667 2.371 -8.816
O 191.398 6.415 -14.186
O 181.468 4.556 -6.463
O 40.587 31.324 -8.083
O 231.060 28.665 -13.683
O 231.571 9.910 -29.949
O 194.529 11.504 -0.650
O 215.895 16.898 -12.366
O 40.100 21.468 -4.241
O 199.776 11.917 -5.525
O 238.461 27.575 -29.488
O 198.692 1.021 -30.932
O 189.531 26.824 -5.892
O 234.865 21.944 -8.495
O 217.355 27.169 -15.230
O 216.884 15.784 -28.996
O 185.839 8.929 -13.259
O 249.096 1.078 -16.084
O 222.362 29.558 -10.746
O 186.081 10.162 -6.973
O 219.021 11.545 -4.833
O 184.116 15.877 -4.066
O 231.707 27.511 -8.535
O 246.977 7.720 -23.561
O 192.438 5.699 -18.860
O 203.653 28.517 -15.370
O 229.338 27.084 -14.903
O 37.150 17.884 -21.702
O 41.567 27.447 -7.011
O 50.888 7.175 -3.858
O 225.943 14.723 -18.259
O 236.350 5.399 -18.874
O 37.312 25.035 -17.395
O 44.141 6.529 -21.255
O 186.441 21.451 -24.899
O 185.747 17.557 -15.177
O 182.623 6.051 -3.484
O 42.615 -0.023 -2.328
O 234.511 15.531 -9.758
O 206.940 28.166 -19.754
O 48.700 3.586 -30.237
O 36.300 2.003 -8.122
O 38.654 30.017 -18.805
O 208.210 22.059 -6.878
O 238.912 1.044 -2.662
O 248.283 30.722 -13.101
O 184.579 2.675 -15.168
O 235.919 23.788 -15.141
O 186.752 7.500 -25.658
O 43.413 29.017 -12.411
O 40.261 6.540 -13.324
O 230.745 24.851 -17.966
O 41.162 15.012 -6.870
O 232.272 4.067 -0.281
O 55.263 21.358 -27.468
O 231.021 10.915 -11.355
O 183.903 8.463 -9.569
O 219.653 19.434 -29.807
O 204.418 26.192 -1.426
O 221.690 31.284 -2.049
O 208.923 20.161 -2.245
O 37.223 20.526 -20.587
O 225.026 29.275 -2.383
O 50.413 5.093 -28.534
O 220.725 2.422 -24.024
O 203.944 24.002 -17.065
O 231.088 19.606 -17.094
O 190.267 26.822 -14.438
O 212.169 2.434 -24.462
O 186.836 19.623 -13.490
O 195.271 17.770 -30.187
O 44.934 1.620 -25.845
O 187.324 4.754 -18.872
O 212.236 2.329 -5.794
O 47.581 27.238 -18.485
O 44.177 5.440 -11.560
O 194.131 4.910 -20.684
O 213.777 26.869 -7.375
O 228.448 16.689 -25.434
O 45.439 29.571 -5.113
O 203.776 11.302 -14.747
O 216.561 26.773 -27.311
O 48.779 27.258 -21.163
O 187.658 8.082 -1.214
O 213.376 15.782 -12.476
O 189.620 30.380 -18.543
O 226.597 18.161 -3.470
O 216.525 20.995 -14.884
O 212.355 10.468 -14.360
O 212.443 31.312 -29.347
O 227.597 28.648 -3.159
O 184.317 30.297 -11.000
O 43.158 29.093 -3.677
O 205.496 14.000 -4.327
O 203.654 23.168 -13.499
O 45.531 24.960 -24.972
O 194.651 22.365 -18.973
O 58.234 25.656 -1.083
O 244.917 8.614 -14.848
O 239.105 14.912 -4.676
O 42.762 12.932 -7.619
O 197.808 6.873 -1.009
O 234.371 23.471 -26.276
O 229.765 16.099 -29.137
O 201.430 30.559 -30.432
O 247.712 14.260 -13.188
O 203.962 29.747 -30.721
O 228.275 21.759 -18.371
O 232.265 20.377 -11.649
O 202.161 8.166 -7.198
O 230.653 12.952 -5.009
O 249.393 4.507 -2.781
O 225.612 4.515 -22.685
O 44.615 19.743 -10.210
O 56.973 25.702 -29.961
O 238.418 26.244 -23.974
O 179.797 18.604 -19.360
O 239.863 21.609 -3.138
O 53.950 8.471 -19.694
O 207.093 17.163 -20.358
O 41.257 8.661 -7.019
O 238.658 19.221 -29.955
O 242.815 17.808 -29.149
O 227.573 6.784 -18.616
O 216.666 13.198 -5.959
O 182.839 6.683 -7.291
O 36.264 15.371 -27.701
O 217.770 11.526 -15.979
O 229.351 8.611 -10.924
O 195.260 5.856 -30.784
O 56.856 24.487 -5.042
O 217.255 28.795 -18.273
O 220.299 22.019 -15.832
O 208.029 27.845 -10.828
O 230.871 17.321 -13.274
O 207.217 29.021 -6.689
O 246.585 17.956 -1.714
O 46.008 19.805 -0.674
O 211.970 3.226 -15.424
O 189.319 0.502 -6.796
O 242.565 25.297 -8.821
O 34.605 13.630 -11.063
O 217.481 27.658 -8.780
O 190.381 13.429 -26.978
O 193.230 27.202 -28.563
O 229.433 28.383 -17.679
O 226.110 14.513 -21.118
O 220.525 1.251 -14.811
O 49.813 5.163 -0.725
O 239.899 12.999 -9.734
O 245.659 15.658 -27.323
O 204.637 26.445 -4.846
O 53.546 15.465 -6.699
O 44.984 31.222 -12.150
O 223.164 23.412 -29.206
O 232.969 5.025 -28.585
O 205.410 25.281 -13.427
O 211.116 10.107 -25.650
O 195.642 21.131 -9.972
O 240.717 22.255 -16.136
O 204.698 2.184 -28.821
O 231.544 20.821 -7.229
O 212.221 11.188 -5.933
O 186.546 29.904 -0.915
O 194.763 30.426 -11.650
O 234.978 9.455 -29.236
O 245.520 30.971 -18.974
O 238.474 16.869 -17.863
O 196.521 6.612 -20.830
O 181.901 5.441 -22.521
O 49.227 22.770 -13.474
O 45.254 29.995 -22.780
O 189.194 13.949 -20.866
O 47.344 26.148 -1.350
O 189.222 1.186 -13.172
O 225.678 22.657 -27.429
O 223.967 11.001 -18.858
O 201.002 1.442 -22.985
O 52.974 27.190 -11.167
O 239.261 29.105 -23.285
O 235.377 11.390 -16.142
O 37.355 13.147 -15.658
O 205.430 5.079 -3.529
O 206.589 6.876 -28.561
O 230.115 22.107 -27.948
O 233.786 6.711 -6.283
O 242.103 24.008 -2.754
O 246.353 11.745 -23.672
O 240.861 4.937 -12.309
O 51.578 14.079 -17.025
O 210.614 28.796 -11.408
O 240.349 6.451 -8.893
O 186.894 14.750 -11.390
O 218.801 8.310 -22.837
O 236.123 29.584 -12.067
O 237.000 17.928 -0.273
O 224.890 24.755 -11.646
O 216.846 4.590 -21.267
O 39.070 7.528 -10.383
O 203.858 25.845 -8.840
O 204.555 13.002 -16.760
O 35.689 23.421 -15.887
O 33.968 1.643 -7.032
O 190.197 7.557 -5.689
O 37.883 10.454 -29.087
O 237.956 1.848 -15.883
O 187.877 29.383 -24.079
O 187.296 19.076 -3.048
O 186.638 15.653 -4.934
O 47.544 14.945 -5.181
O 39.391 17.430 -28.232
O 245.058 17.633 -23.004
O 229.750 23.800 -6.259
O 233.434 25.977 -6.286
O 189.454 12.280 -5.954
O 179.807 22.273 -24.919
O 183.151 27.570 -18.719
O 185.447 26.795 -17.693
O 230.816 27.805 -28.922
O 244.855 12.565 -30.219
O 205.661 2.277 -20.567
O 182.741 0.253 -21.932
O 48.961 26.425 -3.980
O 47.167 19.529 -29.484
O 194.643 28.172 -6.130
O 52.409 3.259 -21.784
O 195.674 12.208 -3.106
O 185.526 10.323 -29.738
O 51.077 27.485 -24.337
O 195.477 13.732 -26.660
O 39.229 7.548 -15.758
O 220.566 10.441 -11.936
O 224.947 1.532 -17.472
O 205.581 9.957 -30.937
O 202.899 18.968 -4.284
O 188.513 27.815 -27.325
O 205.316 18.637 -29.636
O 217.262 29.318 -26.230
O 53.516 27.103 -16.926
O 181.411 30.223 -14.227
O 232.338 15.962 -19.213
O 248.367 9.968 -24.073
O 244.400 25.930 -19.482
O 244.285 10.182 -25.207
O 55.330 30.134 -6.373
O 246.965 13.624 -0.662
O 236.232 30.131 -16.262
O 180.872 6.349 -9.412
O 225.387 27.664 -10.713
O 228.799 10.528 -20.417
O 243.124 17.341 -4.556
O 188.124 7.202 -21.416
O 44.712 20.932 -23.925
O 184.160 9.059 -25.513
O 217.851 27.694 -23.047
O 212.037 0.158 -2.620
O 196.955 27.450 -21.614
O 222.189 18.951 -25.403
O 245.079 3.463 -25.932
O 40.079 30.684 -2.718
O 196.945 4.892 -18.603
O 213.821 30.046 -22.948
O 220.194 30.598 -30.751
O 185.363 13.328 -18.906
O 200.056 19.171 -21.754
O 240.658 19.048 -4.072
O 185.948 2.195 -5.113
O 225.569 14.476 -26.846
O 219.814 28.939 -27.340
O 213.342 7.366 -6.252
O 55.698 27.229 -11.156
O 46.984 0.534 -5.134
O 49.889 25.045 -0.758
O 39.925 21.468 -26.640
O 184.719 15.761 -28.811
O 201.969 17.292 -15.817
O 46.033 22.487 -21.842
O 243.329 12.470 -15.332
O 182.338 29.911 -8.577
O 218.208 -0.002 -18.254
O 198.635 24.730 -24.858
O 48.010 16.137 -18.912
O 49.301 14.473 -21.442
O 243.935 6.041 -26.097
O 192.942 2.091 -1.687
O 220.451 9.755 -6.739
O 201.653 25.236 -16.808
O 236.098 22.628 -6.152
O 193.650 10.867 -4.613
O 211.071 30.763 -13.183
O 212.478 9.006 -4.122
O 223.561 0.169 -24.147
O 184.727 11.699 -13.123
O 189.221 7.951 -14.309
O 224.418 28.183 -25.157
O 225.477 26.665 -20.340
O 182.896 21.969 -30.755
O 221.095 15.748 -12.881
O 246.558 10.321 -16.327
O 45.348 7.265 -18.531
O 233.507 17.661 -0.874
O 214.577 0.628 -30.625
O 38.345 3.258 -3.844
O 233.114 18.612 -6.545
O 187.188 2.604 -16.649
O 225.666 1.230 -10.942
O 209.093 7.998 -27.829
O 34.138 2.282 -23.593
O 36.482 28.156 -9.482
O 211.291 9.713 -18.548
O 185.806 24.292 -27.549
O 202.174 12.654 -4.018
O 38.765 14.098 -5.951
O 231.845 6.130 -4.465
O 51.105 28.359 -17.276
O 184.935 28.836 -30.026
O 212.527 11.404 -16.908
O 179.876 8.783 -18.366
O 208.298 3.775 -2.742
O 228.535 11.717 -6.129
O 187.057 5.513 -0.541
O 51.246 9.900 -19.029
O 220.573 24.529 -10.540
O 218.727 12.266 -2.030
O 210.827 5.485 -3.099
O 222.201 19.296 -0.513
O 37.038 16.520 -3.818
O 35.177 6.614 -19.188
O 47.039 18.573 -16.021
O 42.812 5.076 -7.857
O 55.519 27.283 -25.182
O 244.753 0.693 -30.817
O 201.989 18.215 -30.313
O 44.704 26.716 -26.856
O 225.319 4.711 -25.437
O 219.453 17.731 -14.746
O 43.026 17.339 -22.596
O 48.055 7.368 -1.770
O 188.542 4.903 -22.783
O 179.410 11.449 -1.064
O 246.130 1.227 -1.631
O 50.529 13.878 -24.005
O 215.655 16.515 -20.414
O 229.572 7.818 -6.464
O 194.449 27.741 -20.305
O 247.402 17.531 -26.498
O 193.758 15.662 -22.155
O 215.802 13.800 -24.440
O 215.625 15.823 -0.900
O 221.475 23.103 -26.247
O 208.633 19.870 -20.268
O 228.673 12.906 -29.985
O 231.315 11.750 -21.472
O 192.441 4.407 -5.154
O 242.273 17.878 -26.075
O 189.702 16.936 -10.751
O 220.313 19.067 -2.540
O 41.203 23.262 -24.764
O 217.620 20.966 -5.793
O 219.559 15.902 -19.372
O 222.757 27.482 -8.914
O 235.076 24.386 -18.776
O 189.183 10.513 -22.811
O 228.237 0.217 -3.565
O 194.902 29.012 -15.647
O 48.797 5.340 -9.992
O 181.106 5.930 -13.787
O 209.212 5.410 -12.001
O 187.230 27.106 -1.826
O 181.987 26.262 -15.281
O 53.821 27.484 -3.815
O 37.217 22.183 -1.241
O 231.596 28.995 -16.346
O 247.862 14.100 -24.486
O 43.770 28.345 -9.833
O 244.924 15.125 -12.138
O 235.501 29.205 -26.830
O 41.341 11.734 -26.810
O 230.739 12.798 -23.892
O 197.427 30.042 -20.441
O 54.526 1.889 -10.548
O 228.722 18.776 -7.557
O 227.623 26.123 -2.132
O 225.503 12.931 -23.257
O 225.005 25.253 -7.601
O 45.335 19.993 -7.178
O 199.534 0.167 -21.019
O 199.575 21.234 -27.343
O 38.955 1.550 -11.164
O 55.269 14.952 -1.056
O 57.058 11.337 -30.407
O 53.370 0.786 -21.978
O 245.931 11.442 -20.861
O 198.910 20.916 -14.422
O 235.089 28.203 -31.067
O 193.529 8.426 -25.880
O 239.694 13.270 -15.236
O 47.249 15.196 -26.915
O 221.150 22.703 -12.635
O 248.469 22.046 -15.239
O 205.212 12.679 -30.963
O 238.928 6.343 -16.483
O 248.665 8.589 -15.555
O 212.770 0.693 -26.706
O 47.473 19.175 -3.311
O 192.817 0.218 -9.789
O 48.182 12.578 -24.674
O 195.858 13.653 -19.402
O 235.503 15.134 -13.913
O 52.058 20.787 -29.660
O 237.200 0.080 -27.841
O 217.882 5.138 -29.985
O 186.722 7.316 -17.583
O 194.218 24.314 -25.773
O 191.518 21.206 -8.277
O 200.769 2.642 -19.340
O 221.141 17.130 -28.789
O 40.692 5.034 -4.140
O 246.365 20.508 -17.655
O 226.481 8.491 -27.798
O 230.138 15.714 -22.317
O 209.313 28.687 -17.639
O 37.163 4.620 -29.036
O 181.655 30.314 -30.035
O 216.628 27.804 -29.925
O 235.533 6.980 -16.714
O 220.560 10.123 -16.151
O 184.593 22.965 -2.954
O 240.426 2.875 -14.555
O 37.515 5.101 -2.017
O 220.050 29.795 -14.976
O 37.247 27.117 -13.374
O 36.847 9.837 -25.968
O 196.057 3.582 -8.654
O 248.299 19.227 -13.470
O 213.705 7.244 -2.157
O 221.105 4.899 -20.755
O 241.349 7.441 -0.370
O 51.166 24.576 -14.485
O 39.736 9.239 -26.484
O 222.882 2.306 -13.158
O 191.646 9.161 -9.824
O 199.950 23.275 -14.284
O 46.809 31.434 -9.655
O 188.560 30.120 -21.538
O 34.263 15.689 -13.836
O 52.101 22.417 -20.810
O 36.703 12.142 -24.193
O 212.052 17.749 -15.516
O 199.605 0.824 -8.647
O 52.264 13.450 -8.749
O 237.929 2.727 -20.705
O 229.718 15.411 -5.431
O 45.053 4.296 -15.946
O 178.457 14.925 -29.260
O 53.993 22.619 -30.223
O 192.011 22.979 -5.392
O 224.506 21.046 -19.468
O 45.581 9.268 -24.192
O 41.729 18.726 -9.410
O 53.498 17.243 -13.730
O 244.601 15.592 -20.918
O 194.772 18.714 -5.768
O 248.284 12.747 -20.080
O 243.289 21.773 -10.205
O 50.801 2.031 -13.920
O 198.123 7.161 -6.915
O 35.300 31.191 -24.508
O 35.896 4.305 -31.411
O 219.021 27.843 -31.474
O 49.598 18.358 -22.645
O 50.176 24.448 -20.440
O 188.653 21.499 -2.813
O 45.906 13.826 -6.904
O 201.189 3.444 -13.448
O 212.961 14.008 -3.566
O 58.217 30.862 -30.451
O 179.282 6.098 -29.951
O 184.732 4.973 -8.476
O 224.298 10.346 -26.740
O 40.739 15.558 -22.779
O 190.411 12.444 -24.384
O 190.173 16.421 -26.576
O 192.259 13.994 -17.488
O 215.286 25.245 -15.572
O 236.130 9.206 -6.934
O 234.340 15.793 -16.224
O 35.916 29.784 -6.240
O 215.199 9.799 -13.428
O 210.968 5.281 -8.839
O 231.826 22.465 -4.916
O 43.125 5.771 -18.652
O 246.559 23.872 -10.014
O 215.744 6.226 -6.522
O 222.394 24.853 -14.277
O 43.451 7.700 -3.258
O 37.235 3.884 -6.335
O 230.040 3.905 -20.542
O 226.301 2.018 -21.879
O 206.264 18.491 -12.841
O 47.160 9.411 -19.456
O 213.990 10.110 -8.060
O 187.279 0.315 -26.992
O 235.612 11.269 -10.433
O 208.045 1.294 -8.530
O 248.415 25.976 -26.593
O 248.590 10.478 -9.271
O 40.933 3.815 -11.868
O 232.170 14.342 -28.680
O 248.022 21.941 -4.062
O 239.831 13.073 -28.522
O 185.671 12.433 -2.260
O 38.196 1.390 -26.994
O 183.993 31.233 -28.761
O 50.410 15.672 -7.784
O 185.233 2.932 -22.577
O 205.670 22.415 -10.211
O 229.454 14.054 -1.079
O 195.240 7.051 -18.054
O 204.503 16.683 -19.659
O 185.601 12.493 -10.527
O 234.416 7.326 -24.741
O 244.875 15.829 -3.142
O 47.291 31.249 -19.812
O 197.680 24.696 -15.060
O 33.886 20.022 -30.309
O 202.267 8.705 -18.933
O 239.979 20.970 -7.844
O 56.895 2.657 -9.001
O 193.965 23.457 -28.862
O 243.563 19.931 -2.105
O 232.370 28.205 -2.496
O 181.549 20.362 -20.627
O 207.711 7.941 -20.463
O 222.376 1.465 -26.399
O 181.600 10.943 -17.405
O 200.789 13.828 -1.103
O 40.295 13.510 -15.408
O 185.710 21.266 -8.350
O 243.830 26.344 -0.268
O 201.261 25.709 -9.852
O 245.938 0.913 -25.489
O 216.330 24.269 -30.950
O 192.171 15.723 -15.123
O 219.415 24.605 -6.364
O 201.637 4.243 -31.429
O 237.464 26.522 -5.792
O 245.009 21.877 -19.783
O 204.096 28.806 -2.310
O 184.418 19.364 -6.439
O 215.602 7.073 -18.033
O 201.355 27.016 -22.422
O 40.788 10.975 -18.866
O 46.721 6.870 -11.252
O 207.911 18.065 -29.413
O 202.467 8.793 -22.008
O 181.824 19.762 -9.528
O 232.425 0.706 -31.412
O 234.120 0.172 -7.862
O 221.792 23.438 -6.985
O 200.618 13.322 -23.124
O 214.145 5.309 -11.627
O 36.834 4.222 -10.030
O 247.212 15.132 -17.315
O 199.200 20.372 -29.869
O 209.885 9.858 -13.367
O 246.664 28.135 -11.000
O 44.726 1.707 -2.902
O 237.125 0.522 -10.231
O 34.669 19.468 -5.543
O 195.814 15.017 -3.285
O 185.062 11.135 -26.888
O 37.633 18.255 -24.999
C 62.068 6.585 -28.270
O 61.591 6.629 -29.326
O 62.545 6.541 -27.213
C 111.505 0.806 -24.038
O 111.239 0.304 -23.026
O 111.770 1.307 -25.050
C 136.975 23.467 -7.024
O 137.269 24.253 -6.223
O 136.682 22.681 -7.825
C 47.660 29.490 -15.274
O 47.666 30.561 -14.830
O 47.654 28.419 -15.719
C 134.258 25.353 -4.223
O 134.934 25.990 -4.918
O 133.582 24.715 -3.529
C 70.919 13.380 -19.330
O 71.227 14.447 -18.994
O 70.611 12.313 -19.665
C 177.941 0.795 -28.326
O 177.447 1.841 -28.242
O 178.436 31.181 -28.410
C 75.012 5.936 -21.711
O 75.918 6.571 -22.062
O 74.107 5.302 -21.361
C 243.879 29.264 -24.001
O 244.980 29.619 -23.907
O 242.779 28.908 -24.095
C 173.823 6.250 -0.633
O 174.453 6.079 -31.106
O 173.194 6.421 -1.593
C 66.122 8.938 -14.810
O 66.885 9.718 -14.416
O 65.359 8.158 -15.204
C 62.790 23.738 -30.826
O 63.826 24.258 -30.779
O 61.754 23.217 -30.872
C 70.763 9.632 -17.997
O 70.555 10.061 -16.940
O 70.971 9.202 -19.055
C 82.451 5.704 -26.290
O 81.603 5.368 -25.572
O 83.298 6.040 -27.007
C 64.040 23.128 -3.947
O 63.561 23.802 -3.134
O 64.520 22.454 -4.761
C 68.407 6.395 -18.079
O 68.413 6.257 -19.231
O 68.400 6.533 -16.927
C 64.742 2.106 -14.421
O 64.643 2.623 -15.455
O 64.840 1.589 -13.387
C 88.638 16.026 -3.654
O 88.622 17.119 -4.041
O 88.654 14.932 -3.267
C 162.241 22.520 -0.355
O 161.716 23.168 -30.981
O 162.766 21.872 -1.161
C 109.581 3.415 -14.025
O 110.409 3.070 -13.289
O 108.754 3.760 -14.762
C 59.824 9.933 -28.552
O 60.889 10.111 -28.975
O 58.759 9.754 -28.129
C 132.939 4.324 -8.718
O 133.416 4.180 -7.671
O 132.461 4.468 -9.765
C 154.265 3.116 -27.078
O 153.759 3.611 -27.997
O 154.770 2.621 -26.159
C 166.635 21.506 -9.577
O 166.700 20.813 -10.506
O 166.569 22.198 -8.649
C 100.576 7.493 -17.948
O 100.105 7.902 -16.970
O 101.047 7.085 -18.927
C 135.057 30.370 -19.583
O 136.022 30.453 -20.221
O 134.092 30.288 -18.945
C 48.017 28.768 -30.819
O 48.733 27.975 -30.368
O 47.300 29.562 -31.269
C 165.691 1.235 -17.842
O 166.544 1.590 -17.140
O 164.839 0.880 -18.545
C 101.786 2.045 -27.364
O 102.793 2.456 -26.962
O 100.778 1.635 -27.766
C 178.089 31.055 -31.332
O 178.367 0.690 -0.257
O 177.810 29.987 -30.974
C 174.462 19.229 -15.148
O 174.393 19.073 -16.296
O 174.531 19.385 -14.001
C 59.148 16.146 -28.492
O 58.905 17.115 -27.902
O 59.390 15.177 -29.081
C 145.837 15.548 -2.100
O 146.959 15.399 -1.844
O 144.716 15.696 -2.357
C 156.554 17.192 -15.953
O 156.853 17.374 -17.059
O 156.255 17.010 -14.847
C 59.604 29.188 -22.816
O 60.640 29.314 -22.311
O 58.567 29.062 -23.321
C 172.996 18.260 -18.666
O 173.835 17.505 -18.934
O 172.156 19.014 -18.398
C 177.292 12.420 -18.168
O 178.405 12.138 -18.337
O 176.180 12.703 -18.000
C 177.381 27.213 -3.293
O 178.291 27.931 -3.244
O 176.471 26.495 -3.343
C 81.808 2.590 -13.153
O 82.491 2.780 -14.071
O 81.126 2.401 -12.234
C 181.737 3.681 -25.239
O 180.643 3.439 -25.541
O 182.830 3.923 -24.937
C 125.297 8.291 -17.703
O 125.232 7.767 -16.670
O 125.362 8.815 -18.736
C 157.399 1.520 -29.112
O 156.351 1.750 -28.671
O 158.447 1.290 -29.552
C 66.798 24.515 -5.743
O 67.251 23.983 -6.669
O 66.345 25.047 -4.817
C 46.980 28.381 -25.793
O 46.349 29.174 -26.355
O 47.612 27.587 -25.231
C 177.628 18.247 -12.820
O 177.436 19.328 -13.195
O 177.820 17.166 -12.445
C 76.950 0.524 -25.727
O 75.836 0.705 -25.460
O 78.064 0.342 -25.994
C 82.412 16.616 -3.941
O 83.153 17.457 -3.643
O 81.671 15.774 -4.238
C 124.584 6.166 -20.514
O 125.173 5.736 -19.612
O 123.996 6.596 -21.416
C 125.637 10.663 -20.998
O 126.560 10.210 -21.535
O 124.714 11.115 -20.460
C 57.301 18.387 -20.165
O 56.999 19.412 -19.712
O 57.602 17.363 -20.617
C 61.636 14.232 -7.831
O 60.950 13.336 -8.101
O 62.322 15.127 -7.561
C 179.658 23.942 -14.222
O 179.689 23.133 -15.053
O 179.627 24.750 -13.390
C 159.246 2.652 -0.329
O 158.862 3.617 -31.244
O 159.630 1.688 -0.846
C 64.061 9.752 -19.112
O 64.155 10.827 -18.688
O 63.966 8.676 -19.537
C 189.307 6.037 -10.108
O 188.836 5.083 -9.645
O 189.779 6.990 -10.570
C 94.635 2.345 -3.063
O 94.688 1.231 -3.381
O 94.582 3.459 -2.746
C 97.041 3.965 -14.398
O 96.316 4.390 -13.598
O 97.765 3.541 -15.198
C 177.480 1.281 -24.887
O 177.475 0.221 -25.359
O 177.485 2.340 -24.414
C 174.076 12.722 -20.198
O 174.056 13.875 -20.325
O 174.095 11.569 -20.072
C 126.732 30.065 -5.715
O 125.633 30.395 -5.548
O 127.832 29.735 -5.882
C 72.719 6.692 -17.826
O 73.626 6.281 -18.421
O 71.812 7.103 -17.231
C 161.966 29.421 -6.270
O 160.907 29.711 -5.895
O 163.024 29.131 -6.644
C 140.429 13.395 -30.178
O 140.980 13.721 -29.211
O 139.878 13.069 -31.146
C 174.445 10.098 -23.492
O 174.816 11.190 -23.620
O 174.075 9.007 -23.364
C 174.290 4.016 -9.334
O 173.742 3.060 -8.971
O 174.838 4.972 -9.696
C 164.139 15.977 -2.561
O 163.044 15.776 -2.235
O 165.234 16.178 -2.886
C 178.059 18.581 -7.614
O 178.217 18.926 -6.518
O 177.902 18.236 -8.710
C 102.195 3.223 -17.333
O 103.154 3.716 -16.907
O 101.235 2.729 -17.759
C 176.948 17.889 -3.896
O 176.688 18.908 -3.406
O 177.208 16.870 -4.385
C 173.734 3.176 -20.233
O 174.621 2.737 -20.838
O 172.847 3.614 -19.627
C 201.329 11.210 -24.930
O 202.166 11.787 -25.488
O 200.492 10.633 -24.371
C 177.134 30.200 -21.601
O 177.180 31.296 -21.978
O 177.087 29.104 -21.223
C 237.363 21.321 -13.148
O 237.007 22.339 -12.720
O 237.719 20.303 -13.575
C 144.722 10.917 -19.056
O 144.966 11.622 -18.168
O 144.477 10.212 -19.944
C 138.946 8.405 -12.186
O 139.113 7.281 -12.420
O 138.780 9.529 -11.951
C 140.097 17.094 -13.428
O 141.021 17.720 -13.745
O 139.174 16.468 -13.110
C 169.912 13.100 -20.587
O 169.754 12.095 -21.144
O 170.070 14.105 -20.030
C 177.894 21.749 -10.202
O 177.625 22.628 -10.910
O 178.164 20.870 -9.494
C 145.565 25.759 -28.425
O 145.455 26.567 -27.600
O 145.675 24.950 -29.249
C 162.613 21.495 -5.784
O 163.483 22.228 -6.009
O 161.743 20.762 -5.559
C 182.325 12.263 -28.906
O 181.719 11.677 -28.109
O 182.931 12.849 -29.702
C 168.046 2.436 -11.368
O 167.915 3.503 -10.932
O 168.177 1.369 -11.803
C 173.867 10.545 -8.231
O 174.252 9.760 -8.994
O 173.482 11.330 -7.469
C 67.761 13.214 -15.196
O 68.906 13.397 -15.154
O 66.616 13.031 -15.238
C 94.218 26.466 -4.043
O 94.777 27.129 -4.813
O 93.659 25.803 -3.272
C 153.905 4.327 -9.114
O 154.749 3.547 -8.960
O 153.060 5.107 -9.268
C 175.223 18.684 -24.586
O 176.068 19.369 -24.990
O 174.379 17.999 -24.181
C 178.433 27.643 -16.435
O 177.902 28.674 -16.464
O 178.963 26.612 -16.406
C 80.099 25.262 -1.823
O 80.047 24.113 -1.977
O 80.152 26.410 -1.670
C 191.573 9.965 -28.038
O 190.657 10.529 -27.605
O 192.490 9.401 -28.471
C 154.000 17.675 -3.660
O 154.440 16.789 -3.054
O 153.561 18.561 -4.266
C 57.135 25.400 -18.500
O 57.475 24.351 -18.860
O 56.795 26.449 -18.140
C 176.760 15.669 -15.429
O 177.252 14.777 -14.875
O 176.268 16.562 -15.982
C 141.035 30.340 -21.979
O 141.365 29.589 -21.159
O 140.705 31.091 -22.799
C 225.442 27.662 -5.747
O 225.759 26.968 -4.873
O 225.125 28.356 -6.621
C 93.976 13.613 -5.140
O 94.301 13.096 -4.153
O 93.651 14.129 -6.126
C 128.898 26.638 -19.677
O 129.498 25.666 -19.475
O 128.297 27.609 -19.880
C 57.262 11.906 -6.520
O 57.354 12.101 -7.660
O 57.169 11.712 -5.380
C 109.648 6.215 -18.963
O 110.467 5.432 -18.716
O 108.830 6.999 -19.210
C 179.822 29.132 -25.736
O 179.001 28.342 -25.954
O 180.643 29.922 -25.518
C 175.717 12.504 -10.357
O 174.563 12.425 -10.266
O 176.871 12.583 -10.448
C 130.243 30.413 -24.351
O 130.549 29.377 -24.775
O 129.938 31.449 -23.927
C 135.482 6.773 -24.890
O 135.155 7.099 -23.826
O 135.810 6.447 -25.954
C 132.487 26.016 -24.051
O 132.736 25.623 -22.988
O 132.238 26.409 -25.113
C 150.452 27.851 -26.904
O 151.161 28.701 -26.556
O 149.743 27.002 -27.253
C 137.562 3.847 -22.274
O 138.661 3.526 -22.459
O 136.463 4.168 -22.088
C 176.986 9.317 -12.240
O 177.426 8.872 -13.217
O 176.546 9.761 -11.263
C 54.688 13.924 -15.884
O 54.326 14.880 -15.335
O 55.050 12.969 -16.433
C 100.434 6.007 -14.719
O 99.386 6.491 -14.606
O 101.482 5.522 -14.832
C 159.368 16.951 -22.919
O 158.480 17.661 -23.144
O 160.257 16.240 -22.693
C 173.964 10.341 -13.760
O 175.078 10.658 -13.831
O 172.851 10.024 -13.689
C 138.720 7.467 -22.973
O 139.251 7.982 -23.866
O 138.189 6.952 -22.079
C 75.782 25.747 -30.541
O 76.920 25.928 -30.405
O 74.644 25.567 -30.676
C 154.696 22.961 -16.387
O 154.784 23.868 -15.669
O 154.608 22.055 -17.105
C 42.064 19.968 -15.104
O 40.939 19.806 -14.874
O 43.190 20.129 -15.335
C 57.910 23.008 -12.643
O 57.706 22.261 -13.506
O 58.115 23.755 -11.779
C 176.497 4.865 -15.447
O 176.704 5.210 -16.535
O 176.290 4.521 -14.358
C 147.495 13.030 -4.103
O 146.984 13.344 -5.096
O 148.006 12.716 -3.110
C 177.100 0.561 -16.767
O 177.105 0.520 -15.608
O 177.096 0.602 -17.926
C 50.304 10.344 -25.132
O 50.239 9.604 -24.242
O 50.369 11.085 -26.022
C 56.494 21.508 -23.107
O 56.600 20.407 -23.454
O 56.388 22.610 -22.760
C 72.761 13.733 -15.030
O 72.004 14.191 -14.280
O 73.519 13.275 -15.780
C 65.243 18.356 -6.346
O 66.070 18.857 -6.987
O 64.417 17.855 -5.705
C 172.490 2.145 -13.362
O 171.480 2.686 -13.184
O 173.501 1.604 -13.540
C 177.017 6.568 -10.374
O 176.359 6.704 -11.320
O 177.674 6.432 -9.429
C 147.053 25.056 -25.409
O 146.443 25.604 -24.589
O 147.664 24.509 -26.230
C 90.373 11.171 -5.271
O 90.169 10.547 -6.227
O 90.577 11.795 -4.315
C 65.374 3.569 -25.800
O 65.757 4.500 -26.376
O 64.992 2.638 -25.224
C 58.738 17.126 -6.754
O 57.879 17.867 -6.511
O 59.596 16.385 -6.997
C 131.249 30.030 -20.087
O 131.269 31.189 -20.062
O 131.229 28.870 -20.113
C 174.170 31.129 -8.148
O 174.168 31.253 -9.301
O 174.171 31.006 -6.994
C 180.246 25.380 -21.710
O 180.341 25.035 -22.813
O 180.150 25.726 -20.607
C 54.578 17.161 -18.299
O 55.513 17.629 -17.796
O 53.643 16.694 -18.801
C 169.635 30.516 -12.706
O 168.824 29.758 -12.370
O 170.447 31.273 -13.041
C 175.414 7.727 -26.747
O 176.081 8.301 -25.991
O 174.747 7.154 -27.503
C 107.585 23.470 -6.078
O 107.011 24.416 -5.730
O 108.160 22.524 -6.426
C 111.343 0.353 -16.505
O 110.260 0.768 -16.529
O 112.426 31.370 -16.481
C 61.139 8.448 -5.613
O 60.022 8.670 -5.833
O 62.257 8.226 -5.393
C 123.795 7.382 -11.037
O 123.710 6.254 -11.290
O 123.879 8.511 -10.783
C 90.284 5.843 -22.208
O 90.452 5.885 -23.355
O 90.116 5.801 -21.061
C 177.623 0.761 -4.123
O 177.359 1.106 -3.048
O 177.888 0.417 -5.199
C 51.092 16.630 -4.843
O 50.761 17.533 -5.491
O 51.423 15.727 -4.194
C 163.373 21.855 -25.099
O 162.827 21.783 -24.078
O 163.919 21.927 -26.120
C 137.887 27.902 -14.751
O 137.229 28.845 -14.597
O 138.545 26.960 -14.906
C 160.314 7.370 -22.990
O 160.169 7.338 -21.839
O 160.458 7.401 -24.140
C 175.963 6.120 -5.886
O 176.087 6.681 -4.878
O 175.839 5.560 -6.894
C 218.952 20.171 -19.967
O 219.018 21.296 -19.693
O 218.885 19.045 -20.241
C 72.794 7.901 -22.485
O 72.922 8.258 -21.389
O 72.666 7.545 -23.582
C 176.661 26.756 -12.721
O 176.119 27.341 -13.564
O 177.203 26.172 -11.879
C 78.240 3.266 -23.129
O 78.215 2.288 -22.506
O 78.266 4.244 -23.752
C 58.604 1.058 -3.374
O 57.857 1.890 -3.064
O 59.350 0.226 -3.684
C 145.861 26.619 -6.025
O 145.632 27.682 -5.624
O 146.090 25.555 -6.427
C 61.743 1.360 -30.489
O 62.411 1.936 -29.736
O 61.075 0.784 -31.243
C 57.295 6.427 -3.129
O 57.456 6.205 -4.256
O 57.134 6.649 -2.002
C 170.027 4.618 -22.844
O 169.130 4.341 -23.526
O 170.923 4.895 -22.162
C 55.599 28.210 -21.547
O 56.076 27.359 -22.176
O 55.122 29.060 -20.919
C 174.084 3.217 -25.689
O 174.600 2.623 -26.542
O 173.568 3.811 -24.837
C 64.340 8.404 -0.002
O 64.871 7.908 -0.906
O 63.809 8.900 -30.530
C 145.061 6.889 -14.908
O 145.237 6.214 -13.980
O 144.884 7.564 -15.835
C 60.578 11.250 -2.771
O 59.993 12.247 -2.666
O 61.163 10.254 -2.875
C 81.858 13.316 -8.245
O 81.984 12.859 -9.304
O 81.731 13.773 -7.186
C 90.031 20.592 -4.400
O 90.732 20.216 -5.245
O 89.330 20.967 -3.556
C 95.021 24.527 -0.038
O 96.160 24.675 -31.313
O 93.881 24.379 -0.196
C 82.350 14.170 -24.923
O 83.213 14.564 -24.257
O 81.486 13.775 -25.590
C 168.643 30.489 -17.707
O 167.594 30.223 -18.123
O 169.693 30.756 -17.292
C 174.507 24.890 -5.547
O 175.058 23.871 -5.486
O 173.955 25.908 -5.607
C 177.067 29.583 -7.877
O 176.529 28.692 -7.365
O 177.605 30.474 -8.389
C 73.160 18.511 -16.502
O 73.433 18.094 -17.549
O 72.888 18.928 -15.455
C 82.829 3.517 -22.749
O 82.456 2.495 -22.346
O 83.203 4.539 -23.152
C 249.052 29.910 -0.369
O 34.024 30.107 -0.490
O 247.915 29.714 -0.249
C 160.858 3.403 -17.832
O 159.734 3.126 -17.905
O 161.982 3.680 -17.759
C 160.761 23.501 -18.642
O 161.918 23.473 -18.566
O 159.604 23.530 -18.718
C 174.663 16.963 -30.648
O 175.031 16.876 -0.312
O 174.296 17.050 -29.551
C 227.214 12.794 -10.863
O 227.418 12.023 -11.705
O 227.011 13.566 -10.021
C 178.599 19.276 -28.005
O 178.660 18.446 -27.198
O 178.538 20.107 -28.813
C 141.968 0.791 -14.877
O 141.650 0.207 -13.927
O 142.287 1.376 -15.827
C 63.548 26.146 -7.136
O 63.461 25.153 -6.544
O 63.634 27.139 -7.729
C 170.826 8.734 -30.852
O 170.663 9.669 -0.086
O 170.989 7.799 -30.186
C 221.244 26.512 -4.077
O 221.860 26.632 -5.053
O 220.628 26.391 -3.102
C 64.679 4.466 -18.306
O 65.570 5.066 -17.868
O 63.788 3.866 -18.744
C 161.974 14.217 -14.634
O 162.068 13.266 -13.975
O 161.880 15.167 -15.292
C 38.151 25.312 -25.479
O 37.484 24.484 -25.942
O 38.817 26.141 -25.016
C 167.790 25.121 -11.208
O 167.169 26.014 -10.805
O 168.411 24.229 -11.612
C 173.915 29.459 -0.959
O 174.767 29.927 -1.591
O 173.063 28.990 -0.326
C 91.185 18.701 -7.982
O 90.790 19.542 -8.677
O 91.581 17.861 -7.287
C 132.963 12.691 -4.472
O 131.863 12.642 -4.107
O 134.063 12.741 -4.837
C 167.106 3.742 -20.328
O 166.985 2.619 -20.064
O 167.228 4.865 -20.592
C 175.897 19.363 -21.199
O 175.106 19.863 -21.884
O 176.688 18.862 -20.514
C 128.182 23.404 -13.086
O 129.025 23.449 -12.291
O 127.340 23.359 -13.882
C 155.192 20.180 -13.486
O 155.602 20.572 -12.474
O 154.782 19.788 -14.498
C 69.063 24.084 -3.138
O 68.422 23.381 -2.475
O 69.704 24.788 -3.800
C 229.552 31.250 -26.092
O 228.524 0.267 -26.387
O 230.580 30.800 -25.797
C 75.920 22.331 -30.349
O 75.031 22.056 -29.657
O 76.809 22.607 -31.041
C 58.885 29.833 -17.783
O 58.489 30.870 -18.122
O 59.280 28.797 -17.445
C 145.545 21.134 -4.036
O 144.836 20.830 -3.169
O 146.254 21.437 -4.902
C 173.559 24.531 -22.968
O 173.589 25.155 -21.991
O 173.528 23.906 -23.945
C 111.799 19.902 -8.443
O 110.692 19.745 -8.135
O 112.907 20.059 -8.752
C 85.792 11.266 -4.479
O 86.735 11.666 -5.022
O 84.848 10.865 -3.937
C 162.187 5.484 -26.138
O 161.306 5.044 -25.524
O 163.068 5.923 -26.751
C 116.376 0.193 -4.648
O 116.421 1.343 -4.504
O 116.332 30.476 -4.793
C 179.227 17.188 -24.573
O 179.052 16.199 -25.153
O 179.402 18.177 -23.992
C 175.226 6.256 -21.923
O 175.680 6.725 -22.881
O 174.771 5.787 -20.965
C 177.455 27.890 -29.052
O 176.406 28.328 -28.823
O 178.505 27.453 -29.280
C 60.250 11.127 -10.368
O 59.790 11.995 -10.987
O 60.709 10.260 -9.749
C 173.158 28.295 -22.623
O 172.924 28.630 -21.537
O 173.391 27.961 -23.709
C 88.572 28.290 -9.111
O 87.771 29.118 -9.244
O 89.374 27.462 -8.979
C 174.260 0.768 -30.085
O 175.324 0.627 -29.646
O 173.196 0.910 -30.524
C 52.712 11.032 -21.713
O 51.777 11.101 -22.396
O 53.647 10.962 -21.030
C 150.703 23.245 -29.564
O 150.922 24.316 -29.953
O 150.484 22.174 -29.175
C 226.621 21.067 -10.188
O 226.546 22.221 -10.093
O 226.696 19.914 -10.282
C 200.734 13.736 -27.127
O 200.312 13.974 -26.073
O 201.157 13.499 -28.181
C 150.919 21.340 -16.602
O 150.551 22.332 -17.077
O 151.287 20.348 -16.126
C 126.628 10.336 -7.500
O 126.598 11.180 -8.295
O 126.658 9.492 -6.704
C 157.673 21.529 -17.329
O 157.778 22.102 -16.326
O 157.568 20.955 -18.332
C 159.295 18.171 -13.746
O 159.945 17.569 -12.998
O 158.645 18.774 -14.494
C 112.664 4.288 -9.772
O 111.944 5.183 -9.935
O 113.384 3.393 -9.609
C 93.160 21.526 -1.319
O 92.853 21.644 -2.431
O 93.467 21.408 -0.206
C 42.681 5.952 -30.921
O 42.390 7.022 -31.262
O 42.973 4.883 -30.579
C 93.763 21.035 -8.834
O 94.210 20.849 -9.888
O 93.316 21.220 -7.780
C 145.398 13.770 -21.408
O 145.744 12.835 -22.001
O 145.052 14.705 -20.814
C 142.824 19.361 -9.470
O 143.674 18.720 -9.010
O 141.974 20.002 -9.930
C 124.230 7.957 -7.086
O 124.753 7.174 -7.764
O 123.708 8.740 -6.408
C 159.588 30.194 -9.725
O 159.199 29.189 -9.296
O 159.978 31.199 -10.154
C 59.322 23.122 -7.101
O 59.260 23.430 -8.218
O 59.384 22.813 -5.985
C 121.825 2.145 -17.827
O 120.933 2.510 -18.472
O 122.717 1.780 -17.181
C 89.793 21.784 -21.260
O 90.024 21.814 -20.124
O 89.562 21.754 -22.397
C 192.525 30.941 -15.861
O 192.772 0.298 -15.048
O 192.278 30.151 -16.674
C 143.341 24.499 -5.541
O 143.445 23.345 -5.594
O 143.238 25.654 -5.487
C 139.708 12.673 -6.212
O 139.221 13.724 -6.164
O 140.196 11.621 -6.260
C 174.847 29.387 -25.921
O 173.860 29.989 -25.998
O 175.835 28.784 -25.844
C 139.161 19.987 -8.374
O 138.948 18.854 -8.504
O 139.374 21.120 -8.245
C 135.811 30.866 -24.733
O 136.727 0.023 -25.132
O 134.895 30.277 -24.333
C 87.618 25.070 -17.469
O 87.185 24.944 -16.401
O 88.052 25.197 -18.538
C 77.448 21.029 -27.191
O 76.741 21.781 -26.661
O 78.154 20.277 -27.721
C 59.685 27.364 -27.793
O 59.378 27.259 -26.680
O 59.993 27.469 -28.907
C 173.895 14.248 -2.881
O 174.854 14.144 -2.236
O 172.937 14.352 -3.526
C 177.759 3.142 -7.141
O 177.004 2.982 -8.007
O 178.515 3.302 -6.276
C 151.815 17.646 -18.436
O 152.812 17.296 -18.914
O 150.818 17.996 -17.957
C 113.414 28.491 -27.894
O 113.346 27.417 -27.461
O 113.482 29.565 -28.327
C 155.372 31.233 -30.887
O 155.520 0.523 -0.349
O 155.223 30.509 -29.992
C 141.710 4.737 -11.322
O 141.821 5.184 -10.257
O 141.598 4.290 -12.386
C 85.027 25.554 -9.405
O 85.610 25.616 -10.405
O 84.443 25.491 -8.404
C 97.171 4.602 -18.929
O 98.200 5.105 -18.748
O 96.141 4.099 -19.111
C 175.298 3.554 -2.310
O 175.871 3.867 -3.268
O 174.724 3.240 -1.352
C 168.885 9.211 -28.047
O 168.238 8.351 -28.479
O 169.532 10.071 -27.614
C 178.216 10.405 -7.833
O 179.135 9.725 -8.025
O 177.296 11.085 -7.641
C 74.414 24.193 -16.083
O 74.715 24.528 -15.013
O 74.114 23.859 -17.152
C 75.296 4.481 -13.178
O 76.187 4.391 -13.915
O 74.404 4.571 -12.441
C 217.740 15.759 -4.121
O 217.882 14.626 -3.918
O 217.597 16.892 -4.325
C 121.465 16.024 -13.452
O 121.564 17.112 -13.843
O 121.365 14.937 -13.062
C 96.425 1.331 -22.322
O 96.531 2.310 -22.935
O 96.319 0.351 -21.709
C 67.708 3.710 -22.878
O 67.222 4.537 -22.226
O 68.195 2.884 -23.531
C 128.205 25.506 -26.977
O 128.944 26.040 -27.695
O 127.466 24.972 -26.261
C 67.693 14.238 -11.089
O 67.776 14.266 -12.245
O 67.610 14.209 -9.932
C 141.497 24.715 -17.697
O 141.081 23.850 -18.349
O 141.912 25.580 -17.046
C 58.341 14.508 -19.812
O 59.300 14.256 -20.414
O 57.382 14.760 -19.210
C 120.576 18.778 -16.441
O 119.605 18.947 -15.829
O 121.546 18.609 -17.054
C 71.522 27.309 -9.830
O 71.681 27.046 -10.948
O 71.363 27.572 -8.712
C 137.021 23.898 -13.626
O 137.955 23.331 -14.016
O 136.087 24.464 -13.236
C 177.609 11.292 -23.166
O 177.898 10.801 -24.177
O 177.320 11.783 -22.156
C 81.205 0.290 -20.222
O 81.580 1.140 -19.528
O 80.830 30.872 -20.917
C 181.290 17.505 -30.076
O 180.339 18.160 -30.186
O 182.241 16.850 -29.966
C 145.028 25.696 -17.696
O 144.450 24.944 -18.364
O 145.606 26.448 -17.028
C 59.715 4.889 -27.433
O 59.779 4.375 -28.471
O 59.651 5.403 -26.395
C 108.675 24.517 -21.637
O 109.297 25.010 -20.792
O 108.052 24.025 -22.483
C 117.511 29.061 -2.001
O 116.606 28.383 -1.743
O 118.416 29.739 -2.259
C 168.230 4.180 -15.757
O 168.745 3.186 -16.059
O 167.716 5.175 -15.454
C 166.375 28.831 -15.385
O 165.367 28.271 -15.501
O 167.384 29.392 -15.269
C 137.662 28.285 -27.437
O 137.464 28.027 -28.550
O 137.860 28.543 -26.324
C 175.254 12.748 -6.013
O 175.355 13.386 -6.977
O 175.154 12.110 -5.049
C 53.769 7.211 -22.563
O 53.526 8.323 -22.790
O 54.012 6.100 -22.337
C 112.364 1.012 -12.356
O 111.642 0.359 -11.725
O 113.087 1.665 -12.986
C 60.366 13.431 -31.393
O 59.440 12.861 -30.991
O 61.293 14.001 -0.362
C 122.749 26.741 -17.981
O 122.140 26.526 -17.018
O 123.359 26.956 -18.944
C 58.064 18.974 -2.262
O 57.784 18.410 -1.288
O 58.344 19.538 -3.237
C 56.538 9.159 -23.484
O 56.953 8.181 -23.019
O 56.124 10.137 -23.950
C 87.939 25.346 -23.310
O 87.076 25.352 -24.085
O 88.801 25.340 -22.534
C 56.768 2.396 -21.765
O 56.095 3.048 -21.080
O 57.441 1.745 -22.449
C 104.946 5.185 -21.732
O 105.956 5.671 -21.435
O 103.935 4.698 -22.029
C 175.295 21.284 -18.175
O 176.302 21.605 -17.697
O 174.288 20.963 -18.652
C 85.554 13.270 -0.209
O 85.385 13.818 -30.632
O 85.722 12.723 -1.217
C 96.369 22.764 -4.112
O 96.001 22.924 -3.023
O 96.737 22.603 -5.200
C 173.750 6.917 -13.921
O 174.470 6.619 -14.780
O 173.031 7.216 -13.062
C 58.857 29.474 -6.973
O 59.407 29.455 -5.952
O 58.307 29.492 -7.994
C 58.060 14.435 -10.434
O 58.910 15.024 -9.909
O 57.209 13.847 -10.958
C 61.685 20.557 -1.357
O 62.822 20.668 -1.556
O 60.548 20.445 -1.158
C 114.927 25.060 -30.663
O 114.012 24.676 -30.064
O 115.843 25.445 -31.263
C 92.363 30.659 -14.139
O 91.379 30.974 -14.665
O 93.348 30.344 -13.613
C 92.529 17.568 -1.863
O 91.465 17.166 -2.091
O 93.593 17.969 -1.635
C 59.879 14.878 -16.266
O 60.582 15.764 -16.007
O 59.177 13.992 -16.524
C 170.725 17.247 -31.194
O 169.604 17.384 -30.932
O 171.847 17.111 -31.455
C 164.796 2.948 -25.614
O 164.013 2.971 -24.759
O 165.579 2.925 -26.470
C 97.026 17.888 -16.263
O 95.953 18.320 -16.171
O 98.098 17.456 -16.356
C 60.473 26.367 -10.810
O 61.042 25.764 -11.620
O 59.903 26.971 -9.999
C 99.434 18.558 -2.135
O 100.421 19.077 -1.815
O 98.448 18.038 -2.455
C 94.142 17.613 -4.962
O 94.695 18.401 -5.609
O 93.590 16.825 -4.315
C 139.905 9.598 -28.547
O 139.933 10.749 -28.683
O 139.876 8.446 -28.410
C 146.638 8.563 -24.923
O 147.623 8.005 -24.670
O 145.654 9.122 -25.176
C 58.602 0.950 -26.847
O 59.061 1.991 -26.619
O 58.144 31.342 -27.075
C 58.575 11.573 -13.995
O 59.123 10.551 -14.004
O 58.027 12.595 -13.987
C 99.749 24.145 -19.434
O 99.064 24.607 -20.249
O 100.434 23.683 -18.620
C 97.024 28.641 0.010
O 97.706 27.708 -0.082
O 96.342 29.575 -31.330
C 59.124 2.699 -12.246
O 58.654 2.059 -11.400
O 59.594 3.339 -13.092
C 184.156 6.348 -16.463
O 183.769 7.330 -15.982
O 184.544 5.366 -16.945
C 177.086 23.455 -21.495
O 177.034 24.139 -22.431
O 177.137 22.772 -20.559
C 53.906 24.744 -21.607
O 53.468 25.076 -22.629
O 54.343 24.413 -20.585
C 100.791 20.359 -26.926
O 100.751 20.015 -25.819
O 100.831 20.703 -28.033
C 191.409 18.656 -16.850
O 192.337 18.122 -17.296
O 190.482 19.190 -16.403
C 58.485 20.509 -9.431
O 59.034 20.565 -10.451
O 57.936 20.453 -8.410
C 204.971 20.663 -18.407
O 204.575 21.041 -19.430
O 205.368 20.286 -17.385
C 128.496 1.707 -19.238
O 128.953 2.706 -18.867
O 128.038 0.708 -19.609
3933
Lattice="31.432 0 0 0 31.432 0 0 0 219.437" Properties=species:S:1:pos:R:3 timestep=35975000
O 230.767 7.751 -10.831
O 230.357 24.977 -22.688
O 248.495 23.387 -23.716
O 203.748 23.423 -9.444
O 37.128 2.912 -7.225
O 246.683 15.652 -12.309
O 217.194 30.752 -27.864
O 54.532 24.413 -6.658
O 226.798 19.218 -26.607
O 185.810 17.830 -2.098
O 235.784 16.177 -25.481
O 189.751 14.955 -30.555
O 219.403 26.653 -13.039
O 198.684 25.471 -29.742
O 55.532 29.489 -14.100
O 52.516 6.363 -8.686
O 32.077 25.234 -1.268
O 41.574 8.623 -1.339
O 213.243 26.730 -11.380
O 38.594 28.556 -26.442
O 207.445 8.400 -6.601
O 196.761 19.699 -26.604
O 229.631 22.492 -24.132
O 193.395 5.769 -1.377
O 204.478 27.578 -11.791
O 200.507 20.326 -9.410
O 52.201 17.968 -10.584
O 190.762 18.026 -14.171
O 36.113 13.370 -22.252
O 53.663 3.700 -8.161
O 231.796 24.453 -3.314
O 212.514 6.616 -16.450
O 204.066 17.591 -1.214
O 247.358 18.425 -11.898
O 235.197 22.713 -26.042
O 207.769 20.082 -13.805
O 202.998 6.849 -15.922
O 203.694 21.598 -3.243
O 47.979 16.555 -8.857
O 200.861 24.123 -12.055
O 39.304 9.756 -0.391
O 239.989 31.045 -31.040
O 220.039 27.110 -28.119
O 216.516 28.646 -13.596
O 40.910 -0.011 -7.005
O 223.623 9.588 -5.049
O 49.388 18.608 -18.437
O 203.227 14.965 -30.792
O 56.690 25.822 -15.037
O 237.809 23.144 -25.195
O 208.848 7.268 -13.573
O 229.921 0.461 -22.636
O 197.646 2.983 -27.295
O 238.872 8.617 -21.195
O 192.150 20.194 -0.323
O 52.504 12.685 -20.699
O 230.486 28.379 -3.081
O 45.534 24.009 -26.079
O 215.402 15.408 -6.073
O 191.696 11.612 -30.317
O 238.126 5.779 -22.192
O 242.859 28.937 -29.522
O 41.174 24.892 -14.243
O 224.750 22.358 -4.208
O 233.289 0.229 -2.236
O 197.761 5.903 -11.714
O 210.581 20.058 -0.831
O 197.141 28.493 -3.857
O 45.356 27.633 -12.868
O 220.466 18.285 -24.222
O 33.919 15.953 -29.028
O 190.243 29.558 -3.846
O 236.539 5.390 -13.536
O 218.540 11.636 -22.638
O 243.785 25.317 -16.857
O 43.123 19.870 -21.536
O 55.449 13.633 -23.913
O 195.345 14.396 -23.725
O 48.165 25.544 -1.257
O 245.372 21.214 -27.463
O 34.048 28.576 -4.318
O 208.400 24.286 -17.420
O 250.457 22.677 -15.683
O 227.271 13.735 -19.919
O 224.467 24.788 -3.040
O 191.122 24.608 -4.179
O 238.430 22.077 -16.153
O 244.201 28.764 -23.201
O 61.750 7.149 -24.045
O 48.562 6.298 -18.522
O 57.208 26.745 -19.395
O 192.263 9.638 -20.057
O 58.670 18.014 -20.901
O 235.669 14.466 -14.686
O 210.189 13.058 -11.431
O 220.335 12.090 -3.440
O 214.952 14.536 -19.006
O 49.958 30.724 -5.585
O 34.051 30.993 -9.992
O 200.312 4.348 -0.564
O 47.168 4.976 -27.595
O 62.440 27.144 -6.233
O 205.591 22.779 -22.751
O 233.767 6.212 -1.414
O 195.027 13.596 -27.926
O 49.399 7.226 -5.675
O 202.494 25.894 -14.514
O 194.692 28.818 -12.870
O 240.494 21.298 -4.855
O 244.510 30.602 -21.234
O 55.577 6.301 -25.692
O 249.302 29.509 -31.135
O 47.659 8.317 -16.597
O 237.922 13.833 -11.718
O 56.128 0.507 -11.639
O 248.854 24.557 -16.995
O 207.985 26.152 -3.541
O 226.298 30.072 -7.109
O 225.580 20.182 -2.166
O 40.137 20.365 -28.587
O 248.283 20.716 -18.280
O 230.764 28.167 -16.961
O 246.252 7.422 -26.124
O 196.260 2.976 -10.801
O 250.891 1.902 -17.728
O 58.193 24.175 -10.345
O 238.807 11.385 -26.268
O 223.936 18.605 -24.792
O 197.525 28.547 -10.947
O 195.734 22.009 -21.678
O 194.089 24.005 -14.509
O 212.032 19.189 -21.723
O 42.305 15.779 -17.673
O 250.642 25.300 -29.756
O 202.258 20.468 -15.634
O 231.167 11.860 -11.529
O 222.502 9.391 -27.087
O 222.697 3.451 -31.362
O 43.662 18.810 -30.610
O 213.794 18.968 -31.123
O 245.127 23.356 -2.446
O 248.242 21.598 -27.479
O 37.288 4.856 -3.049
O 245.881 25.955 -31.252
O 246.548 3.468 -3.584
O 33.276 26.715 -17.885
O 203.544 17.827 -20.516
O 53.361 22.426 -4.043
O 221.938 19.104 -1.979
O 250.684 13.450 -10.927
O 32.850 8.287 -30.983
O 228.032 28.536 -15.419
O 205.325 3.667 -27.380
O 250.036 27.164 -7.085
O 59.552 26.152 -24.184
O 195.992 31.350 -7.954
O 54.140 28.810 -24.176
O 61.276 22.720 -25.732
O 250.315 18.493 -11.790
O 222.844 13.611 -29.306
O 54.614 29.101 -1.500
O 250.333 21.578 -9.864
O 218.267 12.559 -10.164
O 217.567 28.224 -16.023
O 216.151 21.461 -20.986
O 58.764 15.881 -24.694
O 31.857 31.032 -19.045
O 222.494 14.892 -5.579
O 229.759 16.690 -16.538
O 50.200 10.121 -16.697
O 229.801 0.891 -8.505
O 246.298 29.796 -25.188
O 227.471 16.698 -26.206
O 199.889 26.277 -15.376
O 48.427 0.024 -26.305
O 213.774 18.448 -7.596
O 42.221 29.978 -20.482
O 191.184 8.210 -1.190
O 59.969 18.180 -18.560
O 35.943 7.459 -9.536
O 36.218 12.473 -7.994
O 239.748 28.308 -10.590
O 231.582 11.639 -4.459
O 195.164 11.933 -11.441
O 235.112 21.431 -23.313
O 240.271 21.960 -18.169
O 244.766 15.049 -4.863
O 223.952 21.123 -25.564
O 204.577 5.575 -1.493
O 232.904 16.258 -10.950
O 38.485 0.129 -10.823
O 210.041 21.067 -21.121
O 37.410 4.922 -24.145
O 54.144 11.895 -16.235
O 37.597 11.862 -29.066
O 31.812 8.604 -13.816
O 234.822 18.516 -3.938
O 213.879 14.819 -11.759
O 42.756 30.000 -16.415
O 60.199 25.756 -7.389
O 223.065 29.355 -1.904
O 232.986 12.962 -17.912
O 62.507 6.449 -6.297
O 196.495 22.829 -28.668
O 197.452 3.562 -6.462
O 217.016 27.039 -30.098
O 36.203 8.275 -20.558
O 211.048 24.870 -10.531
O 237.506 21.787 -5.099
O 231.819 5.454 -7.791
O 198.572 25.589 -21.084
O 217.881 11.960 -2.345
O 48.663 1.483 -23.344
O 60.109 26.786 -18.051
O 60.757 15.700 -18.987
O 208.332 16.530 -6.473
O 220.095 12.313 -19.840
O 221.442 29.201 -8.069
O 228.381 14.677 -9.580
O 225.700 29.777 -30.453
O 236.670 23.465 -28.614
O 248.522 1.537 -29.515
O 48.417 7.836 -9.251
O 228.862 7.144 -24.244
O 244.774 8.200 -17.262
O 204.940 9.562 -22.986
O 241.616 12.263 -5.075
O 241.833 15.794 -23.442
O 243.306 8.057 -11.664
O 199.204 0.158 -25.468
O 241.268 20.129 -14.426
O 59.654 15.744 -27.273
O 243.035 20.682 -30.325
O 230.911 20.076 -28.631
O 198.677 2.387 -23.438
O 50.310 21.235 -21.290
O 198.415 25.625 -25.276
O 225.948 26.343 -9.614
O 38.725 17.049 -25.190
O 246.308 18.169 -22.158
O 246.425 12.112 -30.656
O 249.501 28.804 -13.401
O 243.270 7.439 -25.898
O 45.984 0.729 -23.067
O 244.884 30.646 -12.659
O 46.364 18.989 -3.564
O 222.001 17.455 -5.870
O 207.755 20.535 -29.018
O 224.795 10.561 -1.132
O 190.704 21.202 -25.004
O 244.072 14.962 -13.880
O 229.548 27.640 -22.593
O 218.445 7.714 -20.203
O 205.922 15.731 -8.401
O 210.357 4.684 -23.220
O 227.312 4.665 -28.471
O 37.264 5.144 -8.886
O 200.625 14.793 -18.204
O 191.542 12.053 -4.007
O 199.307 3.337 -17.350
O 186.634 18.960 -5.317
O 248.818 4.046 -12.107
O 203.285 9.621 -12.202
O 242.112 2.960 -10.184
O 221.937 1.651 -26.716
O 41.490 26.186 -30.485
O 39.102 1.110 -18.672
O 247.847 25.696 -7.183
O 42.711 12.467 -6.015
O 225.989 21.703 -17.851
O 53.913 15.000 -11.673
O 48.835 31.353 -0.291
O 207.219 5.574 -26.720
O 52.614 10.684 -31.061
O 39.963 19.518 -19.135
O 219.901 26.495 -19.672
O 35.686 29.012 -11.483
O 219.151 23.979 -20.512
O 219.964 26.247 -2.629
O 231.738 26.654 -27.945
O 218.297 9.634 -7.935
O 193.516 2.435 -21.909
O 62.531 8.869 -30.185
O 213.345 19.215 -10.656
O 220.498 6.418 -17.617
O 207.112 27.177 -24.735
O 236.412 24.398 -15.854
O 237.031 30.425 -21.389
O 225.863 21.196 -14.499
O 249.177 14.688 -12.949
O 50.404 29.244 -20.571
O 193.159 0.500 -13.649
O 58.371 20.588 -16.607
O 214.496 15.259 -26.687
O 213.152 22.497 -28.432
O 202.437 10.760 -22.300
O 44.830 11.600 -4.215
O 38.550 29.261 -22.926
O 62.498 9.796 -1.536
O 224.573 11.312 -16.108
O 34.999 18.763 -18.620
O 211.908 14.184 -14.329
O 239.900 3.473 -8.893
O 246.122 11.925 -21.981
O 45.153 28.013 -28.290
O 249.325 25.517 -12.825
O 224.961 3.048 -16.411
O 38.809 22.730 -29.681
O 37.513 1.386 -5.002
O 230.726 7.349 -14.618
O 206.145 17.784 -10.521
O 230.725 1.174 -11.525
O 198.494 28.544 -14.027
O 234.177 30.177 -6.378
O 212.398 4.574 -11.995
O 51.085 30.735 -30.293
O 244.193 5.515 -9.247
O 215.112 10.453 -25.767
O 237.997 14.990 -4.525
O 223.610 26.006 -7.623
O 246.121 21.011 -0.912
O 189.999 24.905 -23.491
O 223.083 20.861 -6.303
O 202.404 0.671 -16.015
O 218.114 21.938 -18.887
O 196.622 28.724 -8.530
O 42.678 23.753 -19.710
O 210.938 14.303 -3.574
O 214.453 20.220 -3.563
O 235.913 2.644 -20.240
O 33.372 0.174 -16.096
O 211.915 11.325 -6.598
O 55.830 28.901 -20.425
O 34.603 21.523 -4.636
O 236.033 12.274 -16.341
O 201.779 30.955 -27.230
O 56.275 27.241 -10.117
O 44.007 22.376 -24.432
O 40.669 21.571 -25.981
O 40.443 4.800 -24.040
O 216.468 20.524 -9.337
O 55.193 8.225 -1.719
O 249.885 6.697 -31.332
O 232.710 25.968 -14.866
O 197.427 18.315 -3.765
O 41.878 3.220 -31.301
O 221.606 8.637 -8.256
O 250.579 18.294 -2.805
O 247.768 8.692 -0.620
O 36.013 5.000 -5.411
O 51.134 20.555 -10.373
O 53.677 30.432 -29.836
O 241.502 8.906 -19.902
O 189.684 28.317 -14.886
O 228.531 22.745 -0.588
O 217.477 23.078 -10.177
O 189.823 17.383 -5.270
O 61.861 11.594 -25.061
O 202.260 4.117 -16.356
O 53.810 19.211 -26.569
O 191.849 20.602 -7.447
O 39.351 2.290 -28.066
O 220.951 15.402 -9.097
O 48.671 15.476 -16.266
O 61.541 28.662 -28.527
O 243.005 6.709 -14.808
O 193.410 25.071 -12.063
O 228.754 5.139 -3.391
O 33.571 24.037 -6.076
O 227.180 29.559 -20.579
O 238.332 1.269 -20.979
O 56.523 22.681 -11.894
O 193.546 28.091 -22.316
O 39.658 13.146 -13.787
O 206.974 2.255 -23.276
O 231.287 8.974 -5.500
O 211.894 0.066 -19.585
O 49.877 12.373 -13.613
O 218.724 6.132 -27.372
O 57.305 26.320 -29.075
O 227.777 6.311 -30.745
O 226.377 20.786 -30.910
O 203.184 1.109 -25.557
O 231.474 22.312 -27.386
O 50.929 15.928 -12.262
O 48.281 30.679 -3.564
O 58.109 30.730 -29.508
O 195.372 17.907 -14.918
O 205.398 29.986 -5.757
O 44.604 23.441 -2.342
O 226.460 25.092 -24.953
O 236.239 20.518 -2.936
O 62.229 24.395 -29.951
O 234.299 26.627 -31.369
O 244.204 24.456 -21.830
O 35.800 16.713 -14.665
O 247.017 29.884 -16.811
O 242.966 2.603 -26.563
O 249.154 26.243 -4.540
O 194.298 6.447 -22.801
O 37.056 22.753 -3.939
O 39.584 12.436 -16.937
O 218.545 15.447 -7.436
O 225.293 28.439 -14.966
O 205.135 12.027 -6.679
O 201.245 6.484 -26.188
O 190.414 0.810 -4.670
O 238.331 30.732 -26.723
O 243.551 9.133 -8.971
O 53.490 11.434 -6.599
O 246.944 25.371 -19.165
O 242.902 26.112 -20.137
O 185.136 20.599 -3.191
O 201.750 21.508 -18.168
O 216.786 3.399 -9.757
O 226.379 24.529 -22.308
O 56.507 12.313 -12.146
O 233.905 18.870 -11.980
O 240.953 29.955 -27.225
O 41.961 22.185 -2.402
O 217.902 0.660 -20.759
O 220.477 18.813 -7.690
O 190.271 3.661 -4.865
O 35.088 12.414 -4.255
O 235.146 16.214 -7.622
O 52.887 29.752 -16.285
O 51.135 23.638 -31.071
O 232.351 0.267 -8.739
O 54.992 1.868 -0.814
O 194.452 0.371 -30.877
O 56.843 9.592 -5.375
O 45.273 4.304 -16.905
O 60.325 10.110 -2.946
O 33.730 14.864 -22.035
O 32.462 10.706 -12.248
O 192.672 11.858 -13.838
O 51.110 18.114 -27.635
O 35.757 13.290 -16.795
O 206.909 15.948 -4.211
O 43.540 30.916 -30.180
O 34.473 6.953 -16.682
O 225.197 30.677 -22.241
O 227.186 15.984 -16.690
O 192.314 29.851 -28.160
O 210.081 14.440 -22.208
O 38.315 24.465 -22.063
O 207.898 1.826 -9.311
O 42.145 10.402 -13.849
O 47.988 18.379 -30.910
O 202.350 4.635 -2.497
O 52.352 3.283 -20.478
O 32.019 12.557 -28.638
O 54.464 21.698 -23.603
O 210.867 2.554 -2.012
O 246.409 5.838 -21.481
O 228.932 27.402 -8.738
O 197.118 9.711 -9.631
O 249.569 19.701 -26.183
O 209.627 9.791 -14.601
O 48.675 13.325 -22.045
O 37.502 30.073 -8.819
O 241.578 8.401 -16.767
O 220.374 17.752 -13.427
O 204.977 26.130 -7.403
O 246.208 26.926 -22.889
O 48.268 1.238 -16.483
O 232.468 4.449 -19.486
O 58.548 19.950 -25.441
O 45.022 31.267 -1.039
O 190.734 25.273 -7.891
O 233.947 8.985 -1.416
O 219.593 17.832 -27.879
O 48.951 21.861 -29.863
O 43.363 14.475 -12.746
O 236.185 27.078 -17.306
O 188.132 19.158 -1.018
O 51.580 18.087 -7.438
O 218.094 24.048 -25.354
O 212.849 10.922 -0.124
O 237.006 28.501 -5.703
O 247.120 8.843 -28.006
O 197.365 4.196 -0.296
O 43.122 22.830 -14.074
O 41.049 6.003 -13.950
O 47.939 3.672 -17.352
O 243.627 14.858 -2.286
O 241.405 23.232 -31.139
O 212.064 28.254 -16.951
O 244.501 20.725 -19.475
O 222.206 0.698 -1.325
O 65.654 1.097 -0.939
O 227.116 8.934 -22.752
O 43.907 9.605 -26.203
O 224.946 1.070 -2.909
O 40.443 7.040 -21.546
O 241.306 22.770 -14.298
O 245.448 7.693 -7.490
O 205.880 23.657 -14.767
O 227.607 16.276 -20.835
O 232.286 26.743 -25.341
O 195.380 29.285 -30.372
O 227.307 4.386 -24.405
O 41.371 25.759 -26.819
O 197.216 23.307 -18.242
O 239.484 8.725 -4.851
O 52.953 6.434 -24.718
O 234.443 30.195 -30.883
O 60.634 1.589 -22.336
O 51.157 15.231 -17.687
O 248.886 0.938 -10.103
O 48.804 5.278 -7.648
O 219.990 13.774 -5.882
O 240.645 12.423 -18.650
O 58.503 25.609 -1.930
O 237.532 2.904 -7.099
O 229.331 24.980 -28.233
O 46.197 16.273 -21.891
O 35.612 8.183 -26.843
O 47.488 19.620 -6.203
O 222.880 7.599 -18.662
O 245.796 22.748 -10.092
O 233.390 22.270 -7.512
O 217.336 3.428 -16.740
O 246.508 9.456 -18.838
O 44.781 1.510 -28.763
O 193.743 11.503 -7.650
O 217.158 20.642 -25.790
O 230.426 9.913 -23.951
O 241.322 26.055 -22.377
O 199.906 9.711 -14.067
O 217.455 24.386 -6.258
O 60.035 28.047 -13.371
O 51.821 30.352 -3.468
O 228.324 16.698 -23.625
O 64.472 12.015 -23.812
O 215.618 2.717 -5.705
O 32.979 3.166 -22.844
O 40.915 18.390 -22.500
O 250.171 21.375 -6.465
O 227.776 18.421 -2.285
O 208.818 13.308 -0.103
O 33.533 0.175 -28.249
O 39.768 3.610 -13.900
O 191.553 16.113 -21.715
O 60.452 15.996 -14.720
O 222.520 4.376 -12.289
O 250.341 23.640 -4.940
O 56.289 15.357 -4.385
O 208.183 12.989 -27.519
O 222.672 23.659 -23.546
O 243.734 3.591 -3.964
O 194.583 14.553 -4.966
O 49.957 30.510 -16.083
O 241.482 18.836 -27.419
O 36.242 28.131 -2.401
O 218.740 0.316 -13.242
O 46.460 16.938 -24.564
O 239.162 29.820 -4.392
O 39.490 14.811 -9.216
O 49.960 13.495 -19.484
O 226.467 5.106 -4.932
O 222.071 22.543 -0.118
O 194.831 5.469 -8.333
O 58.483 15.956 -12.533
O 241.702 22.409 -7.171
O 190.471 21.411 -2.157
O 33.411 15.503 -15.830
O 212.534 21.640 -4.920
O 203.618 4.122 -12.562
O 238.735 5.203 -26.748
O 52.577 23.042 -14.928
O 222.965 14.529 -19.081
O 202.753 8.015 -8.164
O 49.876 11.725 -7.685
O 46.886 9.045 -1.913
O 216.079 26.721 -27.510
O 221.113 29.092 -21.474
O 230.993 10.781 -28.968
O 47.240 17.006 -6.253
O 232.071 13.448 -2.420
O 232.136 21.499 -24.580
O 56.701 12.745 -4.446
O 189.431 10.442 -0.311
O 239.849 2.973 -5.252
O 215.507 29.762 -17.157
O 37.401 13.578 -12.312
O 246.990 1.132 -24.997
O 232.991 10.771 -26.891
O 216.573 17.195 -17.112
O 242.410 11.012 -23.015
O 55.705 5.058 -11.237
O 41.690 27.672 -1.568
O 215.821 6.730 -0.627
O 59.233 3.355 -9.708
O 196.248 18.040 -28.612
O 247.843 27.611 -25.037
O 240.227 2.303 -26.572
O 215.496 17.747 -22.808
O 193.683 21.425 -19.867
O 59.436 29.620 -9.290
O 207.496 29.987 -7.631
O 57.469 17.880 -23.737
O 36.049 29.104 -15.398
O 52.900 7.334 -0.703
O 212.575 24.734 -4.469
O 209.431 28.933 -25.387
O 54.822 24.831 -9.469
O 198.451 3.263 -12.737
O 189.203 11.361 -10.936
O 207.914 5.601 -8.531
O 50.814 0.380 -24.976
O 33.909 13.122 -26.881
O 206.287 24.580 -11.242
O 220.799 12.909 -12.821
O 57.404 12.355 -27.240
O 231.886 6.258 -30.557
O 57.048 7.874 -12.912
O 50.241 23.734 -13.921
O 32.237 29.331 -9.464
O 221.213 14.928 -15.280
O 56.898 18.126 -13.334
O 227.061 26.136 -29.316
O 201.760 5.406 -20.860
O 211.802 0.720 -22.246
O 46.868 4.784 -0.676
O 188.918 2.599 -1.432
O 216.133 10.800 -9.033
O 235.132 4.674 -30.202
O 33.983 23.554 -8.984
O 52.178 5.071 -2.718
O 205.167 9.301 -31.038
O 192.036 6.812 -18.167
O 207.356 26.333 -27.811
O 60.208 6.565 -31.387
O 194.701 24.166 -30.332
O 241.418 14.643 -14.529
O 225.997 11.485 -3.712
O 249.115 5.607 -16.610
O 200.833 4.171 -13.872
O 48.197 20.837 -19.700
O 195.340 13.916 -20.985
O 249.978 6.164 -22.056
O 241.703 19.548 -10.139
O 47.486 24.531 -6.686
O 36.703 25.211 -31.273
O 218.681 0.605 -3.815
O 203.172 18.655 -17.715
O 42.542 23.258 -9.710
O 45.330 21.153 -22.247
O 32.304 3.115 -1.216
O 222.929 29.325 -16.813
O 215.686 17.728 -12.536
O 34.791 24.174 -1.831
O 198.595 10.571 -6.179
O 221.429 8.160 -10.952
O 46.568 28.825 -18.043
O 189.325 31.062 -30.912
O 53.281 21.854 -8.729
O 42.895 15.321 -0.470
O 193.425 3.354 -26.854
O 48.204 17.939 -16.039
O 202.123 1.242 -22.926
O 240.671 17.543 -19.813
O 230.265 20.843 -31.206
O 247.538 29.113 -5.985
O 60.368 18.937 -14.676
O 226.121 2.390 -21.241
O 206.462 11.872 -21.689
O 208.112 2.602 -6.616
O 251.044 28.312 -25.710
O 37.036 27.382 -5.652
O 225.768 23.750 -10.445
O 207.588 10.893 -31.240
O 221.122 16.329 -25.966
O 211.770 20.503 -29.678
O 235.614 15.812 -10.452
O 235.664 25.724 -27.428
O 233.145 27.916 -20.648
O 241.567 11.660 -1.058
O 220.554 2.478 -5.998
O 51.956 21.585 -6.367
O 225.089 18.850 -28.659
O 50.368 27.078 -22.328
O 244.660 3.714 -28.456
O 219.591 9.696 -24.656
O 46.018 31.415 -16.955
O 198.224 24.474 -9.000
O 238.500 16.628 -28.543
O 203.649 1.359 -13.433
O 200.610 19.684 -4.138
O 204.420 12.609 -19.952
O 192.541 19.133 -27.395
O 233.557 7.213 -28.386
O 54.833 17.946 -24.168
O 234.182 22.121 -29.075
O 207.499 21.524 -26.584
O 63.676 0.946 -3.380
O 237.896 28.840 -15.577
O 215.678 26.496 -1.113
O 197.175 22.058 -5.626
O 214.977 5.890 -29.578
O 214.369 1.305 -23.368
O 249.308 25.602 -25.784
O 196.762 14.640 -0.404
O 220.957 5.651 -10.358
O 198.741 4.762 -3.828
O 238.193 25.026 -0.319
O 32.585 4.920 -16.447
O 250.836 17.470 -20.462
O 40.461 30.035 -15.068
O 57.930 1.558 -13.709
O 231.622 4.960 -27.954
O 62.934 9.694 -15.311
O 50.836 3.848 -18.282
O 216.790 22.834 -16.792
O 242.328 24.735 -5.710
O 227.314 25.443 -2.267
O 208.144 13.320 -20.274
O 32.260 19.314 -14.539
O 50.656 20.107 -0.712
O 250.006 12.935 -16.467
O 198.094 16.767 -17.924
O 54.062 9.061 -5.028
O 237.290 12.984 -9.219
O 244.755 21.991 -24.840
O 48.097 20.767 -2.220
O 226.730 27.634 -24.378
O 48.681 4.157 -24.163
O 223.283 18.926 -15.847
O 222.753 3.812 -25.292
O 51.833 5.112 -22.288
O 196.395 10.698 -3.587
O 247.782 5.201 -26.347
O 237.076 5.044 -10.964
O 33.204 19.049 -30.052
O 198.547 0.671 -21.236
O 220.207 9.679 -31.163
O 201.653 21.514 -6.541
O 39.393 7.451 -4.810
O 204.816 6.026 -10.955
O 245.119 28.346 -27.828
O 57.686 25.990 -12.515
O 195.283 24.693 -19.827
O 34.667 11.306 -14.401
O 233.249 14.990 -5.939
O 233.874 10.770 -3.671
O 205.013 4.633 -17.445
O 230.337 30.569 -6.532
O 220.886 20.367 -4.543
O 31.986 0.720 -21.736
O 239.868 18.801 -5.524
O 208.864 7.651 -10.154
O 229.435 29.781 -12.938
O 194.262 8.600 -0.413
O 221.187 10.617 -6.034
O 54.758 26.719 -12.469
O 52.525 14.151 -0.127
O 207.665 25.310 -30.464
O 222.647 0.954 -15.798
O 209.577 8.451 -17.013
O 217.207 8.192 -17.371
O 55.738 31.091 -24.445
O 234.766 27.668 -4.178
O 221.261 24.302 -6.559
O 199.578 5.662 -9.623
O 35.500 29.668 -24.052
O 213.261 24.155 -19.975
O 233.274 18.872 -27.542
O 218.446 23.796 -13.350
O 232.073 12.736 -20.392
O 249.471 29.090 -16.121
O 218.292 4.292 -5.958
O 226.186 2.298 -29.349
O 48.843 11.575 -1.309
O 224.964 21.020 -9.644
O 31.948 28.541 -20.478
O 37.655 11.796 -5.660
O 41.857 10.301 -10.481
O 218.777 3.396 -3.391
O 44.387 27.145 -2.081
O 222.005 13.829 -1.771
O 52.545 9.051 -28.855
O 46.803 20.207 -13.066
O 200.222 17.490 -0.440
O 35.063 1.853 -12.038
O 200.236 2.840 -26.175
O 241.525 4.678 -6.588
O 42.107 22.107 -29.327
O 232.181 24.070 -11.660
O 212.179 26.250 -27.655
O 216.726 3.775 -30.470
O 203.355 15.847 -14.828
O 233.192 9.023 -24.789
O 241.235 30.212 -9.360
O 192.289 27.919 -30.273
O 36.823 8.265 -5.786
O 192.980 11.563 -21.829
O 44.696 21.242 -29.252
O 55.755 7.677 -16.874
O 196.060 7.053 -16.182
O 247.912 12.786 -14.562
O 226.179 15.681 -3.733
O 230.220 7.675 -7.990
O 192.326 14.683 -13.903
O 56.513 29.275 -16.623
O 226.945 11.876 -8.578
O 229.277 11.538 -6.657
O 49.309 23.072 -1.656
O 233.210 15.279 -24.403
O 193.013 3.623 -8.363
O 199.292 7.078 -21.270
O 55.425 6.735 -8.590
O 49.031 1.524 -8.826
O 43.229 0.704 -22.031
O 53.903 11.142 -18.860
O 227.005 28.470 -1.144
O 34.468 4.306 -9.003
O 44.435 29.145 -25.715
O 219.896 19.850 -18.797
O 198.847 14.832 -30.193
O 248.778 22.646 -13.511
O 241.798 26.387 -13.036
O 48.888 25.362 -23.888
O 220.764 13.848 -17.751
O 243.079 19.838 -12.627
O 237.979 13.837 -19.648
O 58.281 13.193 -24.720
O 246.867 25.315 -14.248
O 61.763 20.529 -27.943
O 193.827 16.577 -20.218
O 198.952 16.968 -25.972
O 40.003 15.099 -27.173
O 192.606 21.744 -26.879
O 52.846 9.424 -23.771
O 57.986 16.742 -2.641
O 203.664 23.943 -6.568
O 230.885 17.132 -24.456
O 41.009 19.497 -16.498
O 204.044 27.062 -2.608
O 236.994 12.039 -5.770
O 39.242 9.661 -13.906
O 238.646 10.759 -7.949
O 234.780 27.794 -7.840
O 207.070 17.424 -14.643
O 233.076 19.636 -18.974
O 35.380 25.322 -28.789
O 209.846 12.591 -8.148
O 201.189 30.668 -3.065
O 247.936 21.170 -11.322
O 209.301 29.563 -19.527
O 202.152 15.527 -26.026
O 41.681 11.198 -25.275
O 233.658 11.514 -15.360
O 210.545 24.463 -31.020
O 226.841 6.853 -8.827
O 50.203 18.471 -13.782
O 233.838 23.680 -19.748
O 247.432 23.715 -0.516
O 46.712 10.120 -5.836
O 223.127 26.598 -14.602
O 224.354 27.776 -18.628
O 196.088 4.201 -29.133
O 246.707 1.672 -11.731
O 202.323 14.327 -20.610
O 199.333 29.397 -1.447
O 215.333 14.056 -3.023
O 45.446 6.287 -8.944
O 57.737 2.297 -0.522
O 236.420 11.829 -12.977
O 43.371 9.938 -23.175
O 233.280 20.867 -10.150
O 217.095 6.913 -8.152
O 237.253 3.707 -28.736
O 204.425 5.574 -29.379
O 213.708 0.108 -5.455
O 209.157 1.925 -31.273
O 234.101 31.062 -11.738
O 207.525 20.927 -8.489
O 43.213 8.719 -16.580
O 205.505 23.224 -4.241
O 234.870 6.611 -4.740
O 52.712 8.186 -20.959
O 53.856 12.151 -11.582
O 230.537 20.504 -3.613
O 32.753 10.245 -4.891
O 237.327 17.448 -21.046
O 196.664 13.177 -15.656
O 201.116 0.987 -20.424
O 52.869 6.540 -29.566
O 240.765 18.433 -23.125
O 208.809 9.121 -27.337
O 207.328 3.608 -16.179
O 37.762 16.889 -16.813
O 34.444 6.618 -7.337
O 45.963 18.052 -0.957
O 223.095 28.371 -10.210
O 191.588 26.380 -21.617
O 51.774 19.880 -23.044
O 240.799 13.115 -10.952
O 36.808 28.819 -19.178
O 55.102 5.088 -14.722
O 42.444 5.543 -4.870
O 50.193 6.925 -20.925
O 199.709 23.474 -6.045
O 60.025 9.236 -7.672
O 227.865 17.965 -30.775
O 226.860 8.204 -19.978
O 192.160 1.392 -2.615
O 198.134 29.059 -28.178
O 244.328 9.645 -24.767
O 218.567 18.578 -3.141
O 63.224 24.162 -27.438
O 34.435 7.822 -1.662
O 240.854 2.409 -15.501
O 36.175 17.602 -21.592
O 196.798 15.801 -12.688
O 193.363 16.337 -15.860
O 241.237 10.915 -27.452
O 210.585 17.314 -20.396
O 249.489 16.170 -18.392
O 202.517 27.397 -6.704
O 32.050 21.457 -28.844
O 48.949 17.868 -3.144
O 40.177 8.767 -25.474
O 228.361 26.834 -5.934
O 31.909 5.238 -4.999
O 230.605 22.770 -13.903
O 35.717 23.767 -11.741
O 244.438 16.290 -23.050
O 234.999 2.404 -4.302
O 188.636 16.778 -9.389
O 55.004 3.269 -21.767
O 48.664 15.808 -30.684
O 234.446 6.077 -17.049
O 217.596 19.701 -16.639
O 248.694 1.002 -22.813
O 200.430 13.324 -26.358
O 192.477 9.568 -27.841
O 244.275 17.532 -3.350
O 245.497 17.260 -17.347
O 247.461 24.007 -26.792
O 41.715 6.264 -9.104
O 41.631 25.989 -9.651
O 45.880 18.922 -17.333
O 224.581 1.276 -27.481
O 35.705 26.343 -12.439
O 36.295 24.597 -17.924
O 38.276 27.240 -20.895
O 37.052 19.544 -25.265
O 250.220 1.006 -26.785
O 38.543 24.760 -13.649
O 201.902 9.340 -3.082
O 232.729 19.930 -5.385
O 206.269 10.489 -8.593
O 200.527 18.141 -18.605
O 221.542 3.473 -29.028
O 222.907 27.003 -3.351
O 53.477 0.219 -9.545
O 214.719 4.481 -8.112
O 34.616 27.518 -20.056
O 197.612 9.043 -20.586
O 210.835 25.424 -19.778
O 197.137 26.168 -7.214
O 192.243 2.485 -11.432
O 235.392 2.604 -13.461
O 193.136 30.201 -10.736
O 237.685 16.524 -14.643
O 191.006 27.157 -5.739
O 246.345 28.153 -19.087
O 227.348 16.391 -6.284
O 201.770 5.923 -28.883
O 51.663 2.110 -29.506
O 61.225 27.340 -20.445
O 56.004 5.562 -3.034
O 48.015 6.774 -3.118
O 196.577 26.125 -16.588
O 55.843 5.639 -22.952
O 39.789 10.100 -4.959
O 238.520 15.591 -22.624
O 236.503 14.910 -1.473
O 213.017 15.402 -2.221
O 239.073 8.586 -1.407
O 201.334 14.932 -10.196
O 37.114 8.011 -14.288
O 244.667 29.958 -0.193
O 195.544 18.417 -7.818
O 240.736 4.837 -22.374
O 227.526 18.787 -20.151
O 210.525 2.861 -4.887
O 46.353 21.276 -15.900
O 195.172 26.895 -0.748
O 211.511 15.128 -28.003
O 211.711 9.860 -17.952
O 53.116 14.483 -15.952
O 60.148 12.360 -22.966
O 52.938 28.239 -28.618
O 245.533 0.351 -4.648
O 43.484 16.425 -29.469
O 48.684 9.788 -3.808
O 220.605 18.562 -10.448
O 214.657 10.513 -2.024
O 228.452 1.245 -1.209
O 213.005 25.945 -1.835
O 34.188 21.902 -13.107
O 193.445 22.497 -8.626
O 229.094 17.646 -14.106
O 45.885 11.571 -1.321
O 34.810 1.769 -20.036
O 219.578 0.465 -15.961
O 225.857 3.749 -10.862
O 53.325 14.188 -6.195
O 248.674 10.390 -11.830
O 58.961 24.128 -26.413
O 211.987 15.354 -18.458
O 43.546 8.307 -11.317
O 239.632 23.983 -2.524
O 222.043 25.985 -26.830
O 34.925 10.689 -28.103
O 233.124 3.335 -6.406
O 248.413 1.556 -13.803
O 218.269 15.325 -18.798
O 59.921 22.888 -6.115
O 57.872 24.217 -20.110
O 214.441 14.786 -30.291
O 213.360 10.805 -9.022
O 210.154 4.506 -7.611
O 49.375 19.691 -8.067
O 237.947 26.226 -6.587
O 204.246 28.995 -22.651
O 203.529 0.809 -7.009
O 58.416 6.560 -25.575
O 63.612 3.815 -6.834
O 190.473 3.813 -8.037
O 242.085 28.314 -25.215
O 198.007 27.494 -18.574
O 215.695 20.892 -30.951
O 200.129 30.872 -6.774
O 222.990 22.489 -27.645
O 237.334 31.284 -17.193
O 57.101 23.614 -17.463
O 40.677 29.678 -24.397
O 40.797 28.994 -4.281
O 44.078 28.969 -8.574
O 245.270 9.181 -29.948
O 40.952 0.586 -30.871
O 223.523 21.503 -19.298
O 249.942 10.018 -17.012
O 38.624 1.154 -22.225
O 49.669 17.956 -23.646
O 48.981 6.475 -26.102
O 224.511 19.909 -12.138
O 213.785 12.890 -28.501
O 212.925 23.918 -8.950
O 46.781 29.714 -8.138
O 235.866 9.129 -29.140
O 37.343 25.790 -3.355
O 57.714 22.128 -2.235
O 44.978 13.782 -23.913
O 218.559 12.366 -27.327
O 202.289 11.361 -0.647
O 234.634 12.277 -8.711
O 57.960 26.729 -5.879
O 189.114 13.893 -9.931
O 34.905 30.059 -1.196
O 188.961 19.627 -10.032
O 208.929 14.876 -13.795
O 45.208 15.630 -5.181
O 210.770 28.765 -4.368
O 50.843 28.022 -26.527
O 230.291 24.904 -31.177
O 236.747 24.908 -11.646
O 43.506 24.393 -27.868
O 51.210 25.311 -28.981
O 46.444 13.350 -5.308
O 216.595 4.324 -1.984
O 218.431 17.871 -6.206
O 194.772 14.890 -17.688
O 223.109 22.335 -14.930
O 39.755 17.266 -11.674
O 37.625 1.252 -0.782
O 32.590 16.588 -6.036
O 62.893 4.558 -21.981
O 187.029 30.863 -11.491
O 194.132 2.218 -29.015
O 230.158 14.706 -27.490
O 250.577 5.097 -26.637
O 211.457 22.169 -7.407
O 36.994 15.521 -3.590
O 205.379 17.517 -26.693
O 32.997 3.518 -14.149
O 56.625 13.760 -18.067
O 55.192 20.706 -10.505
O 215.301 17.151 -28.329
O 220.291 8.692 -3.477
O 43.074 12.231 -8.881
O 225.837 11.543 -21.212
O 218.821 29.790 -19.886
O 224.307 0.098 -17.719
O 215.795 5.722 -17.534
O 206.791 6.235 -14.989
O 60.262 2.302 -4.244
O 188.940 30.921 -18.043
O 53.260 22.141 -29.482
O 199.018 20.127 -1.802
O 192.644 26.188 -0.867
O 210.202 22.232 -13.333
O 189.655 13.124 -7.344
O 31.934 4.231 -11.765
O 211.354 8.757 -1.894
O 228.849 27.441 -31.113
O 247.978 14.891 -0.017
O 223.376 6.663 -30.761
O 215.147 25.335 -4.912
O 33.754 3.257 -5.321
O 240.420 29.304 -6.977
O 203.754 14.526 -7.392
O 217.491 3.192 -12.385
O 239.607 21.523 -1.080
O 221.403 11.815 -22.812
O 195.588 20.243 -4.420
O 237.362 22.383 -31.055
O 55.593 9.355 -24.722
O 208.193 0.776 -19.583
O 52.893 6.616 -5.437
O 247.759 0.128 -7.499
O 189.322 26.134 -16.424
O 231.330 16.693 -8.538
O 195.916 19.886 -10.299
O 249.483 23.739 -2.411
O 35.529 0.478 -7.622
O 245.550 9.291 -21.322
O 192.989 10.710 -16.567
O 54.963 1.411 -17.036
O 189.569 6.570 -9.081
O 207.506 9.301 -20.813
O 245.053 3.899 -19.922
O 240.098 28.612 -13.312
O 59.562 10.657 -20.661
O 47.331 26.310 -28.317
O 215.994 5.855 -22.764
O 43.869 27.364 -23.441
O 188.018 11.912 -28.346
O 54.768 2.440 -27.758
O 51.268 4.296 -25.679
O 220.786 4.872 -22.198
O 44.926 3.998 -30.236
O 51.254 27.506 -2.091
O 61.599 26.714 -11.619
O 249.637 8.421 -26.895
O 40.491 27.852 -28.394
O 45.453 0.904 -14.495
O 192.069 22.408 -15.709
O 197.310 4.587 -24.077
O 215.482 3.594 -24.654
O 203.384 25.114 -11.652
O 215.823 6.454 -26.617
O 51.909 4.869 -10.984
O 210.688 19.710 -14.517
O 233.615 27.821 -16.546
O 40.087 26.005 -3.188
O 43.517 17.756 -2.884
O 201.283 18.595 -6.943
O 222.614 26.264 -20.236
O 35.845 30.844 -30.175
O 234.798 6.918 -19.821
O 208.167 13.760 -3.579
O 219.236 5.266 -19.826
O 230.663 21.023 -10.995
O 62.236 23.612 -23.082
O 45.685 20.681 -8.135
O 205.487 18.914 -29.428
O 249.755 5.525 -2.571
O 56.515 1.678 -26.147
O 53.713 19.837 -3.315
O 192.846 7.686 -12.598
O 202.517 25.453 -23.512
O 211.482 21.290 -11.182
O 36.523 13.321 -1.943
O 55.720 2.522 -14.723
O 234.070 30.594 -20.681
O 212.888 18.682 -16.913
O 240.097 25.599 -9.714
O 221.523 7.897 -15.076
O 47.128 29.699 -11.390
O 211.983 8.352 -25.465
O 50.013 9.151 -11.996
O 200.435 12.640 -4.984
O 206.049 7.841 -28.784
O 204.583 24.415 -27.442
O 214.227 0.938 -29.968
O 202.879 10.578 -6.192
O 40.169 23.338 -4.070
O 231.682 27.133 -11.266
O 189.525 20.233 -13.057
O 212.739 6.418 -7.702
O 229.655 18.265 -10.239
O 194.298 7.651 -25.260
O 221.066 30.369 -24.668
O 211.387 6.663 -14.082
O 54.544 11.340 -22.859
O 243.453 7.500 -21.555
O 205.241 15.638 -22.192
O 223.847 4.666 -8.896
O 46.571 10.516 -19.843
O 250.566 18.537 -8.942
O 46.975 1.816 -19.878
O 210.653 28.900 -14.835
O 222.141 21.024 -8.855
O 35.919 19.799 -12.314
O 208.229 20.998 -5.652
O 199.125 6.615 -17.872
O 193.821 28.624 -8.111
O 249.363 4.228 -6.951
O 239.010 24.315 -13.463
O 60.782 12.537 -30.030
O 229.019 25.102 -19.749
O 234.451 23.265 -9.945
O 53.812 26.995 -26.386
O 235.833 15.385 -19.917
O 201.116 0.929 -29.602
O 191.735 0.263 -7.050
O 247.707 0.857 -2.346
O 37.333 5.425 -0.296
O 56.676 19.491 -27.389
O 226.505 9.162 -16.065
O 46.072 0.721 -6.682
O 35.121 14.295 -31.143
O 190.509 13.277 -28.201
O 198.429 6.938 -25.366
O 222.472 3.666 -15.187
O 205.377 25.855 -4.614
O 44.506 22.059 -11.404
O 198.865 11.744 -29.224
O 249.824 26.204 -21.042
O 248.471 31.381 -18.748
O 241.425 9.181 -2.566
O 211.231 2.729 -17.824
O 204.283 2.879 -8.603
O 50.653 1.571 -6.718
O 56.708 28.435 -30.628
O 54.636 23.647 -21.283
O 244.429 20.212 -5.681
O 212.192 22.703 -22.252
O 187.957 24.007 -15.351
O 231.687 19.766 -13.151
O 59.951 18.956 -11.226
O 62.451 7.440 -27.878
O 42.621 15.378 -6.057
O 61.783 2.510 -8.457
O 46.214 23.917 -21.729
O 38.440 31.223 -26.172
O 236.388 18.409 -10.150
O 233.620 14.107 -29.234
O 52.252 23.199 -11.053
O 212.610 1.210 -11.193
O 229.300 10.457 -1.267
O 224.131 8.810 -29.130
O 57.799 4.366 -12.711
O 49.768 3.371 -31.002
O 238.634 4.142 -17.805
O 196.707 9.260 -14.785
O 54.553 14.388 -19.594
O 59.926 14.972 -22.427
O 247.843 4.271 -9.582
O 209.863 19.070 -27.739
O 38.947 24.047 -0.873
O 216.150 12.174 -24.128
O 232.701 26.750 -2.252
O 205.175 25.091 -24.530
O 36.092 0.418 -2.857
O 35.509 1.773 -15.043
O 203.611 14.729 -12.280
O 46.161 27.345 -6.824
O 45.023 19.660 -26.423
O 35.531 19.682 -31.168
O 199.988 26.786 -23.110
O 39.155 19.660 -30.998
O 236.175 21.543 -7.648
O 36.174 21.777 -29.259
O 193.134 16.881 -9.057
O 226.323 10.989 -28.429
O 34.420 15.866 -19.248
O 198.201 17.428 -9.450
O 220.978 23.584 -25.797
O 236.941 4.466 -24.328
O 209.242 15.866 -10.505
O 241.669 8.157 -28.084
O 238.938 15.581 -31.272
O 32.667 6.857 -12.051
O 194.964 13.903 -13.551
O 217.933 13.455 -14.490
O 200.534 1.883 -9.659
O 64.706 27.362 -25.977
O 44.925 30.904 -11.858
O 52.641 21.911 -20.067
O 214.017 3.710 -2.573
O 209.857 1.732 -24.866
O 193.558 13.233 -2.575
O 240.580 14.954 -17.320
O 223.123 7.292 -25.174
O 218.211 29.424 -30.092
O 34.469 13.820 -6.363
O 49.979 9.238 -29.400
O 59.795 20.625 -1.270
O 240.597 26.642 -7.248
O 201.691 23.152 -27.164
O 44.264 12.677 -28.602
O 60.988 21.954 -30.397
O 245.996 10.938 -15.129
O 56.262 25.046 -31.366
O 207.524 20.919 -22.205
O 36.156 1.555 -17.670
O 46.329 3.275 -22.105
O 40.885 16.997 -28.773
O 236.195 14.886 -30.113
O 230.214 25.181 -9.910
O 249.260 19.681 -21.458
O 225.766 17.426 -8.355
O 236.564 24.798 -19.627
O 204.789 26.711 -21.074
O 49.147 28.349 -7.579
O 230.605 14.320 -22.201
O 233.751 21.412 -13.909
O 42.141 10.034 -3.608
O 235.432 16.876 -28.230
O 44.700 12.879 -10.935
O 188.910 3.756 -27.476
O 214.755 22.638 -10.493
O 245.570 16.358 -0.121
O 238.223 18.395 -18.543
O 58.616 27.702 -15.998
O 194.093 1.577 -6.582
O 204.317 18.305 -14.248
O 43.770 8.330 -5.177
O 195.811 26.145 -13.947
O 50.611 5.486 -28.304
O 196.480 14.642 -6.961
O 225.086 6.118 -12.395
O 194.603 27.241 -3.485
O 50.957 0.227 -12.652
O 204.575 12.005 -25.154
O 227.640 0.386 -4.005
O 54.796 16.407 -6.936
O 241.820 6.950 -23.776
O 211.596 20.308 -25.587
O 197.395 17.338 -1.231
O 34.982 9.149 -3.842
O 238.475 5.461 -5.772
O 209.052 16.576 -26.826
O 200.126 4.860 -6.920
O 58.605 21.012 -7.531
O 197.243 2.290 -18.998
O 216.919 24.333 -22.889
O 243.426 17.029 -30.039
O 211.642 28.113 -19.642
O 190.391 1.273 -9.483
O 189.491 6.425 -30.633
O 217.516 24.357 -1.497
O 235.718 28.827 -13.580
O 37.247 11.558 -15.235
O 59.935 6.302 -27.861
O 249.520 8.496 -7.962
O 42.424 24.391 -23.236
O 230.829 11.904 -16.232
O 198.703 28.031 -30.528
O 36.055 8.764 -24.067
O 229.407 9.187 -26.884
O 39.465 5.305 -19.414
O 58.797 12.557 -2.646
O 217.445 28.025 -21.250
O 208.981 23.442 -7.787
O 198.122 16.258 -5.470
O 245.367 6.357 -13.355
O 55.998 3.428 -19.122
O 224.893 24.042 -28.813
O 37.958 11.801 -10.207
O 191.231 19.019 -17.114
O 209.480 30.869 -5.641
O 227.391 1.021 -10.130
O 213.192 30.889 -16.131
O 56.519 9.077 -27.266
O 55.976 18.034 -20.406
O 43.749 1.758 -3.745
O 190.981 2.768 -25.661
O 230.186 27.242 -13.751
O 192.464 13.835 -0.240
O 189.411 10.258 -6.625
O 242.307 24.940 -2.919
O 62.064 1.885 -27.518
O 208.813 1.444 -17.024
O 52.592 26.155 -17.180
O 229.844 3.547 -8.076
O 215.082 5.195 -12.607
O 201.156 8.354 -10.709
O 193.866 31.207 -26.181
O 235.835 7.642 -15.384
O 31.734 25.767 -23.564
O 56.825 0.625 -6.795
O 47.012 23.641 -29.427
O 57.960 15.802 -7.087
O 206.753 11.037 -18.564
O 38.594 29.482 -2.679
O 234.431 13.908 -21.803
O 38.871 20.284 -15.000
O 208.230 20.906 -18.127
O 235.514 6.094 -7.276
O 214.988 26.246 -8.874
O 218.301 29.025 -5.866
O 205.107 20.349 -7.731
O 42.469 12.787 -17.037
O 217.519 8.920 -22.920
O 214.634 0.755 -19.124
O 209.661 0.559 -11.007
O 48.641 24.446 -19.987
O 198.956 8.377 -8.041
O 192.705 11.433 -25.734
O 39.227 30.289 -20.564
O 45.981 22.636 -5.268
O 212.673 17.102 -12.079
O 202.820 28.602 -14.063
O 38.199 17.387 -2.016
O 207.023 27.470 -8.875
O 226.644 8.219 -27.633
O 225.600 26.605 -5.482
O 247.220 22.050 -20.243
O 237.236 5.729 -19.622
O 210.393 17.358 -8.148
O 213.320 28.158 -3.562
O 235.834 12.334 -2.219
O 58.203 6.608 -17.493
O 193.113 18.952 -19.082
O 247.178 2.705 -27.372
O 217.838 18.947 -13.930
O 230.405 5.244 -25.635
O 193.335 5.860 -6.117
O 219.046 26.759 -7.237
O 227.964 3.575 -17.480
O 206.078 14.907 -27.144
O 226.815 29.018 -9.493
O 211.711 12.637 -18.389
O 195.869 6.710 -1.922
O 39.419 14.471 -19.143
O 192.328 27.743 -14.868
O 198.577 24.023 -13.765
O 187.855 8.612 -30.202
O 210.256 22.410 -18.758
O 204.804 11.423 -10.806
O 242.209 0.113 -19.808
O 223.509 12.710 -12.149
O 46.513 18.648 -9.787
O 202.284 29.319 -24.829
O 228.864 20.417 -14.219
O 237.422 30.002 -30.128
O 38.660 23.485 -17.751
O 233.858 12.464 -11.192
O 219.223 17.421 -20.260
O 211.811 18.223 -3.421
O 43.818 20.262 -18.631
O 217.111 0.156 -9.057
O 225.443 5.333 -15.032
O 37.289 27.501 -9.822
O 194.198 4.134 -15.124
O 225.899 11.081 -24.072
O 195.572 17.471 -22.106
O 187.867 30.364 -13.952
O 63.323 8.160 -11.154
O 248.651 11.607 -21.588
O 236.833 17.324 -5.522
O 52.500 24.323 -24.429
O 34.490 26.578 -6.070
O 235.505 22.761 -1.393
O 61.490 25.494 -1.116
O 237.917 21.446 -10.071
O 247.134 9.542 -3.371
O 49.205 25.745 -9.426
O 31.735 15.602 -9.626
O 201.813 23.458 -4.152
O 229.295 11.811 -19.166
O 191.028 18.769 -24.079
O 247.086 7.856 -23.502
O 240.472 19.309 -17.221
O 234.692 1.183 -17.965
O 225.407 29.106 -4.302
O 196.390 8.548 -26.846
O 197.767 13.957 -18.093
O 247.353 17.920 -8.924
O 190.214 6.303 -27.824
O 194.038 5.289 -17.631
O 222.103 27.795 -5.754
O 49.580 14.170 -10.672
O 53.388 20.283 -0.687
O 195.025 19.331 -30.715
O 230.984 30.162 -15.105
O 240.174 9.266 -23.959
O 231.885 23.782 -16.332
O 250.572 30.594 -29.112
O 57.803 2.499 -23.982
O 210.025 25.902 -5.407
O 195.497 11.212 -20.663
O 59.989 27.742 -3.971
O 242.396 20.499 -24.164
O 243.378 13.766 -11.533
O 51.024 27.972 -13.010
O 43.937 4.083 -8.718
O 193.167 23.802 -25.087
O 39.857 6.928 -17.018
O 191.336 19.507 -21.326
O 243.289 14.430 -17.911
O 204.883 21.426 -27.640
O 225.403 22.156 -23.583
O 206.660 11.616 -4.496
O 54.840 12.067 -27.913
O 42.861 3.337 -24.161
O 61.986 29.210 -22.401
O 233.241 23.971 -24.637
O 194.923 1.152 -2.001
O 210.437 27.906 -29.174
O 200.021 15.624 -13.551
O 58.398 13.691 -29.515
O 196.989 24.991 -0.277
O 224.531 17.635 -2.947
O 243.108 15.170 -9.329
O 228.799 10.957 -3.965
O 60.189 25.061 -21.535
O 56.170 29.645 -8.638
O 243.796 28.635 -19.171
O 217.847 15.986 -13.203
O 237.684 7.805 -27.756
O 37.570 27.169 -14.336
O 206.279 15.577 -12.511
O 249.818 4.378 -19.681
O 232.260 23.250 -21.976
O 243.177 8.203 -5.164
O 43.167 6.854 -27.896
O 223.243 31.238 -30.441
O 46.476 11.133 -12.120
O 59.182 28.515 -22.900
O 239.299 17.789 -9.788
O 231.048 10.462 -21.308
O 203.224 10.057 -19.684
O 58.480 22.568 -29.180
O 37.011 10.981 -19.990
O 201.078 19.517 -25.017
O 55.033 11.608 -1.026
O 32.160 25.067 -27.320
O 231.908 30.542 -28.048
O 61.903 11.656 -19.511
O 209.902 24.190 -15.103
O 232.173 20.487 -16.417
O 229.375 13.782 -12.133
O 199.020 21.186 -26.144
O 48.613 27.601 -2.995
O 249.451 18.685 -29.690
O 48.190 11.624 -18.058
O 226.625 23.688 -14.622
O 247.669 13.537 -17.920
O 214.098 8.823 -21.747
O 243.412 0.244 -10.283
O 244.783 11.680 -10.703
O 208.870 24.663 -21.356
O 48.945 12.973 -4.351
O 239.279 13.307 -1.856
O 32.743 23.333 -11.369
O 243.901 1.679 -6.945
O 189.377 20.885 -18.375
O 51.878 25.761 -7.074
O 194.464 21.796 -0.703
O 199.780 24.437 -17.346
O 33.667 18.810 -21.688
O 45.586 17.853 -12.374
O 50.333 15.349 -1.303
O 34.156 14.701 -9.050
O 197.228 7.078 -29.338
O 248.210 21.175 -3.184
O 200.946 28.742 -4.957
O 219.359 4.880 -29.634
O 213.962 26.470 -16.508
O 50.667 8.807 -8.123
O 32.749 7.349 -26.163
O 213.090 24.753 -30.270
O 248.173 17.497 -24.669
O 194.367 8.521 -5.968
O 192.915 15.725 -24.181
O 248.992 8.051 -18.552
O 55.043 0.631 -21.666
O 228.169 22.377 -3.132
O 248.498 29.331 -3.359
O 41.782 24.148 -17.077
O 203.284 20.561 -9.713
O 224.222 24.305 -13.491
O 202.603 8.806 -25.347
O 33.502 30.417 -25.879
O 205.984 8.558 -4.422
O 232.543 0.534 -13.789
O 224.719 5.990 -1.615
O 35.885 21.587 -1.629
O 61.023 9.480 -10.311
O 42.170 13.330 -27.048
O 218.107 26.172 -17.520
O 196.474 18.871 -18.614
O 41.453 23.555 -0.072
O 244.988 3.858 -11.929
O 214.199 20.150 -25.718
O 239.999 1.478 -23.099
O 52.921 26.626 -10.389
O 229.605 29.961 -1.139
O 52.483 19.992 -14.018
O 224.884 26.286 -27.101
O 216.475 16.593 -30.942
O 210.360 18.635 -23.761
O 222.134 1.492 -23.633
O 206.416 20.364 -11.272
O 236.462 29.002 -27.834
O 58.624 28.212 -1.355
O 207.898 27.936 -11.335
O 201.589 10.854 -27.968
O 192.461 29.299 -17.201
O 251.123 22.901 -23.198
O 42.438 19.998 -4.010
O 44.782 25.746 -17.264
O 220.134 12.140 -15.814
O 242.221 30.992 -6.097
O 215.703 9.768 -11.567
O 248.221 15.168 -28.475
O 55.870 25.269 -27.036
O 227.325 25.896 -16.048
O 234.951 29.558 -2.253
O 36.753 15.440 -28.825
O 187.287 11.899 -6.218
O 234.657 24.089 -13.689
O 58.529 8.931 -24.061
O 195.104 5.328 -11.236
O 198.057 12.686 -2.129
O 215.644 18.390 -5.536
O 214.112 7.732 -2.425
O 196.477 11.798 -7.517
O 199.434 25.056 -2.804
O 40.424 2.924 -10.506
O 41.055 0.957 -24.024
O 58.424 15.215 -20.279
O 42.559 10.923 -20.622
O 221.368 19.912 -28.172
O 206.630 5.832 -3.488
O 197.409 6.202 -7.067
O 248.303 4.713 -23.669
O 189.820 23.608 -9.697
O 246.616 25.454 -3.788
O 55.461 26.752 -17.229
O 246.528 18.539 -4.767
O 246.315 20.879 -23.091
O 32.096 14.395 -31.190
O 244.329 22.163 -12.338
O 200.866 16.453 -15.977
O 200.062 16.168 -7.236
O 61.153 14.055 -16.736
O 210.836 3.658 -14.044
O 55.773 0.639 -29.544
O 200.038 16.745 -20.993
O 201.512 1.077 -0.982
O 236.026 5.383 -2.580
O 41.108 0.618 -26.865
O 243.972 28.424 -13.712
O 225.858 12.721 -30.792
O 39.960 10.208 -29.185
O 229.862 3.632 -29.454
O 213.024 12.108 -25.875
O 228.083 6.797 -11.379
O 235.645 9.482 -5.631
O 233.352 9.805 -7.183
O 50.795 21.743 -28.082
O 232.398 6.012 -3.641
O 212.029 21.216 -17.106
O 207.291 23.313 -19.656
O 211.585 5.074 -19.070
O 196.375 16.835 -24.799
O 238.980 10.069 -18.512
O 42.452 27.425 -17.872
O 220.061 15.276 -11.823
O 220.570 13.784 -24.665
O 234.877 9.458 -13.559
O 237.166 24.823 -8.933
O 245.336 27.090 -5.420
O 251.106 17.199 -31.197
O 233.994 25.671 -6.051
O 195.671 27.396 -20.574
O 211.404 1.179 -6.795
O 187.352 21.622 -8.432
O 236.096 19.512 -29.211
O 249.493 29.770 -23.368
O 247.923 18.338 -2.316
O 196.660 20.198 -16.220
O 49.370 25.814 -26.504
O 36.872 23.640 -26.314
O 241.085 6.123 -29.819
O 239.816 5.530 -12.139
O 203.703 21.016 -23.463
O 31.953 19.267 -5.537
O 234.532 22.837 -17.327
O 206.154 26.994 -14.707
O 216.910 14.407 -25.583
O 60.959 5.819 -15.617
O 239.478 31.135 -12.132
O 242.520 13.367 -21.623
O 222.604 19.095 -18.459
O 49.138 12.206 -30.234
O 198.529 30.859 -4.356
O 59.637 5.396 -5.188
O 245.483 14.687 -16.133
O 219.327 9.217 -15.907
O 243.672 21.225 -16.880
O 39.912 16.017 -6.656
O 63.007 30.782 -28.373
O 50.897 27.459 -30.709
O 205.595 26.685 -0.117
O 205.565 1.595 -4.071
O 55.440 9.205 -21.275
O 47.966 24.955 -14.742
O 62.347 14.258 -20.762
O 192.007 10.231 -11.915
O 228.204 3.050 -26.429
O 204.568 1.147 -0.243
O 207.230 15.742 -0.441
O 236.315 20.956 -17.177
O 57.063 19.173 -8.886
O 64.258 12.215 -21.071
O 237.296 -0.015 -7.227
O 206.731 12.819 -12.234
O 222.657 11.087 -30.638
O 52.717 28.308 -5.757
O 201.684 3.363 -19.079
O 218.369 12.898 -30.029
O 235.006 19.451 -15.238
O 189.258 20.024 -5.014
O 33.596 16.499 -24.252
O 231.977 12.713 -31.156
O 54.175 17.703 -31.044
O 190.508 31.435 -14.404
O 240.778 6.510 -18.533
O 55.357 8.587 -10.714
O 234.085 15.382 -2.678
O 209.871 8.697 -22.083
O 246.541 22.880 -16.267
O 228.814 12.220 -28.222
O 61.948 7.683 -13.517
O 241.519 0.141 -17.142
O 233.277 3.395 -25.345
O 211.823 11.136 -13.288
O 50.086 26.803 -18.992
O 225.664 6.024 -26.740
O 195.028 3.012 -24.701
O 244.103 13.851 -7.179
O 223.734 16.764 -27.015
O 37.034 18.029 -29.791
O 197.277 4.586 -15.303
O 48.985 5.493 -10.522
O 33.682 23.829 -17.781
O 42.103 19.459 -9.084
O 196.758 7.317 -4.608
O 34.283 5.185 -1.435
O 55.828 15.395 -21.625
O 54.908 22.819 -1.101
O 214.732 11.639 -18.371
O 231.512 17.259 -5.935
O 191.155 23.890 -1.064
O 223.147 5.466 -27.987
O 204.645 7.302 -13.557
O 206.222 17.508 -18.363
O 52.407 30.972 -21.483
O 50.423 11.504 -10.615
O 246.769 16.466 -19.817
O 250.656 15.771 -3.794
O 227.776 0.129 -30.138
O 231.304 2.773 -21.959
O 52.184 15.394 -28.941
O 219.058 4.656 -8.648
O 57.454 7.173 -6.325
O 192.420 14.093 -26.223
O 228.194 13.031 -1.309
O 200.208 19.866 -12.068
O 224.028 8.584 -11.736
O 209.774 30.733 -30.643
O 227.244 0.971 -23.398
O 213.452 26.823 -22.827
O 201.687 22.859 -24.261
O 195.148 18.089 -12.146
O 211.303 12.825 -30.521
O 60.379 5.632 -21.294
O 50.913 11.118 -4.769
O 224.784 10.585 -13.616
O 235.895 1.127 -27.616
O 33.136 22.577 -26.250
O 210.109 5.055 -27.804
O 47.975 5.407 -21.676
O 225.019 30.116 -11.259
O 200.224 12.732 -13.662
O 40.921 6.452 -30.176
O 40.095 22.101 -9.629
O 39.814 16.063 -31.341
O 37.784 5.646 -11.782
O 214.033 8.170 -13.084
O 229.407 1.169 -17.919
O 59.941 0.337 -0.231
O 214.333 6.047 -20.643
O 54.060 18.861 -16.043
O 228.520 23.196 -10.921
O 217.037 8.348 -3.963
O 240.538 10.033 -30.301
O 37.792 27.154 -17.034
O 240.882 24.846 -29.069
O 195.250 29.476 -24.220
O 221.519 27.835 -0.195
O 53.623 1.252 -13.540
O 195.909 31.320 -13.746
O 195.961 22.406 -11.500
O 46.916 1.481 -4.192
O 213.275 8.808 -5.453
O 242.656 10.889 -18.135
O 217.460 12.684 -19.722
O 230.602 17.076 -20.590
O 59.097 1.298 -27.641
O 245.703 11.762 -17.650
O 38.402 30.341 -5.940
O 239.340 8.257 -11.899
O 229.266 3.471 -11.016
O 244.538 25.168 -9.985
O 43.545 5.890 -12.624
O 214.253 29.393 -9.369
O 241.941 17.152 -4.678
O 195.013 11.191 -1.310
O 192.137 27.521 -26.174
O 53.406 29.497 -19.290
O 205.055 8.919 -26.409
O 241.789 12.763 -25.018
O 229.317 29.360 -29.036
O 213.863 15.495 -22.895
O 33.050 7.043 -22.128
O 33.265 11.634 -24.711
O 49.256 4.058 -15.152
O 207.075 13.207 -23.968
O 201.182 10.796 -17.970
O 218.646 22.115 -0.345
O 60.047 21.733 -9.883
O 205.233 30.137 -16.917
O 214.165 22.335 -15.959
O 215.522 26.051 -21.360
O 31.937 12.642 -6.476
O 234.946 29.702 -23.737
O 222.099 20.089 -13.511
O 220.602 6.376 -7.033
O 46.351 7.410 -20.128
O 40.800 15.538 -15.297
O 59.824 1.653 -19.660
O 223.415 11.802 -9.528
O 209.850 29.510 -1.460
O 203.798 24.085 -21.032
O 191.673 30.205 -21.912
O 208.947 12.606 -17.616
O 214.033 3.687 -18.390
O 234.128 7.731 -8.934
O 195.116 30.422 -3.637
O 206.204 19.756 -24.956
O 204.685 14.205 -16.671
O 223.940 25.718 -22.377
O 46.920 1.721 -31.117
O 247.443 2.830 -19.584
O 215.330 29.031 -23.634
O 53.423 24.098 -27.757
O 56.963 17.260 -30.177
O 207.353 22.435 -30.893
O 48.596 1.845 -13.525
O 45.325 15.070 -28.150
O 211.314 23.055 -26.229
O 201.129 9.363 -30.348
O 50.496 25.466 -11.820
O 43.598 2.302 -10.915
O 46.999 29.830 -28.879
O 227.462 19.527 -9.150
O 32.281 30.899 -0.923
O 245.014 24.939 -7.008
O 243.924 6.284 -19.113
O 38.426 7.393 -8.071
O 50.664 2.542 -2.192
O 210.048 16.247 -16.628
O 58.484 31.222 -22.998
O 215.973 9.510 -30.818
O 51.033 7.582 -3.609
O 206.272 3.848 -13.516
O 199.325 2.122 -3.232
O 250.293 30.012 -7.087
O 204.887 11.937 -0.329
O 209.703 26.427 -13.798
O 61.641 2.976 -24.936
O 214.782 17.529 -2.523
O 40.233 27.716 -13.417
O 199.006 10.962 -22.746
O 228.237 21.084 -27.953
O 214.359 17.259 -18.674
O 37.476 22.782 -15.086
O 48.083 8.242 -13.667
O 196.872 5.791 -21.557
O 33.190 28.815 -16.168
O 194.532 17.572 -1.516
O 212.753 16.243 -5.673
O 33.927 23.219 -30.012
O 203.391 21.310 -30.131
O 49.545 30.954 -18.714
O 208.939 10.039 -24.723
O 228.320 5.771 -6.933
O 231.572 5.812 -17.116
O 46.301 8.796 -10.999
O 215.110 31.338 -11.077
O 220.109 22.370 -23.228
O 36.672 14.201 -19.599
O 42.467 5.901 -1.054
O 221.864 29.706 -27.127
O 36.465 31.004 -13.224
O 247.718 14.227 -3.012
O 230.928 13.968 -8.117
O 32.300 1.936 -10.107
O 231.553 2.758 -0.537
O 241.547 15.902 -26.175
O 40.731 15.592 -22.067
O 238.897 6.506 -3.224
O 32.638 13.306 -14.632
O 211.916 10.023 -20.806
O 250.337 15.540 -25.193
O 214.147 19.729 -28.375
O 237.113 19.529 -24.022
O 234.340 4.715 -27.455
O 60.210 30.919 -12.192
O 216.162 31.336 -13.787
O 190.143 9.399 -9.170
O 188.228 29.581 -1.363
O 244.845 6.522 -28.867
O 226.690 30.434 -13.375
O 38.295 25.666 -8.023
O 199.195 22.260 -22.759
O 197.910 16.947 -15.148
O 207.908 28.998 -16.396
O 35.339 21.314 -26.439
O 216.279 10.991 -28.643
O 55.944 9.744 -14.864
O 205.830 4.423 -6.950
O 32.265 7.916 -6.206
O 192.630 20.644 -13.572
O 188.715 26.901 -0.143
O 198.363 8.336 -1.086
O 230.716 19.355 -22.811
O 201.525 20.518 -27.515
O 187.968 22.721 -6.225
O 223.986 1.913 -11.953
O 59.421 11.751 -15.746
O 225.051 12.517 -26.301
O 63.352 31.419 -31.227
O 47.848 13.067 -15.486
O 201.263 20.510 -0.189
O 35.577 18.090 -27.133
O 186.868 23.064 -3.064
O 40.174 9.585 -20.326
O 247.737 20.056 -7.079
O 240.832 7.353 -6.940
O 235.529 20.047 -26.091
O 45.688 11.558 -22.179
O 196.544 22.547 -14.540
O 35.054 4.995 -20.270
O 247.959 4.258 -30.849
O 47.460 22.941 -18.035
O 40.853 22.668 -21.716
O 38.511 23.015 -6.228
O 53.545 6.386 -12.875
O 194.275 16.734 -27.795
O 219.663 25.368 -30.311
O 218.555 15.990 -24.106
O 213.602 29.677 -21.205
O 41.247 18.138 -0.992
O 243.561 24.099 -14.205
O 247.900 28.089 -9.057
O 54.894 16.375 -15.184
O 246.836 14.684 -23.028
O 53.708 1.028 -7.092
O 40.651 9.460 -7.694
O 217.998 20.763 -29.240
O 55.630 28.609 -6.208
O 231.304 3.469 -3.419
O 50.745 15.317 -21.381
O 59.738 18.703 -27.798
O 50.401 23.410 -26.083
O 213.814 12.495 -4.730
O 210.246 29.397 -11.305
O 200.598 23.390 -9.208
O 219.933 20.854 -25.513
O 205.562 0.205 -19.308
O 198.332 29.196 -20.857
O 203.323 8.038 -5.103
O 207.574 5.781 -23.869
O 238.969 25.492 -26.151
O 57.635 31.465 -20.483
O 192.113 22.412 -11.262
O 213.423 19.007 -13.959
O 236.836 13.599 -26.060
O 232.111 8.192 -20.116
O 209.811 14.267 -5.967
O 240.463 22.455 -9.734
O 52.673 28.918 -8.957
O 56.809 16.436 -27.331
O 222.428 24.991 -1.000
O 190.357 10.665 -18.180
O 245.881 12.075 -3.437
O 198.852 0.628 -13.419
O 47.890 2.302 -28.131
O 193.115 29.208 -5.591
O 250.634 12.298 -19.795
O 190.040 28.345 -18.375
O 189.681 9.941 -27.614
O 43.894 13.082 -19.624
O 212.833 2.215 -15.722
O 238.172 15.924 -17.224
O 35.571 10.916 -11.633
O 229.705 14.434 -2.953
O 46.954 5.791 -12.783
O 214.227 0.729 -2.782
O 204.038 15.339 -4.657
O 224.498 4.973 -23.522
O 205.366 5.021 -22.131
O 220.562 9.623 -19.876
O 236.357 10.229 -0.653
O 59.647 4.766 -23.911
O 224.732 29.269 -27.658
O 36.450 11.513 -24.573
O 195.719 2.816 -4.225
O 245.211 25.395 -27.250
O 200.485 17.201 -11.288
O 193.387 4.336 -3.692
O 218.375 26.772 -25.928
O 206.878 8.304 -24.514
O 49.397 2.757 -4.509
O 36.086 28.954 -28.237
O 233.398 30.654 -16.265
O 46.628 23.261 -9.472
O 50.701 9.198 -1.135
O 241.428 1.270 -1.343
O 206.341 24.161 -8.450
O 234.880 2.984 -1.263
O 43.646 22.868 -7.218
O 53.577 19.443 -20.618
O 44.107 6.381 -15.528
O 246.624 22.656 -4.797
O 221.408 23.282 -4.023
O 194.981 12.962 -30.530
O 216.982 0.635 -16.484
O 230.070 7.628 -0.514
O 196.686 24.407 -2.902
O 35.293 3.087 -3.037
O 200.171 18.792 -15.201
O 32.460 21.121 -20.229
O 35.057 4.969 -11.823
O 50.326 27.579 -15.831
O 239.524 22.347 -28.153
O 204.678 1.881 -17.107
O 35.400 15.274 -25.829
O 46.615 2.395 -8.948
O 53.144 3.594 -31.238
O 247.416 17.566 -27.435
O 250.653 13.187 -23.763
O 208.650 24.276 -26.009
O 238.752 0.527 -9.346
O 248.635 15.431 -8.056
O 226.596 19.147 -24.002
O 56.212 14.841 -13.343
O 219.839 4.774 -25.267
O 228.938 12.205 -24.868
O 190.665 7.254 -6.322
O 244.326 1.512 -2.013
O 241.289 11.103 -16.009
O 205.392 7.928 -8.982
O 62.092 2.579 -0.486
O 56.788 12.537 -15.598
O 40.160 12.242 -8.710
O 212.217 15.353 -8.622
O 52.971 15.825 -9.222
O 62.851 26.442 -23.304
O 193.821 23.919 -2.833
O 234.082 23.204 -4.732
O 39.824 3.425 -21.433
O 208.667 7.618 -29.670
O 40.700 14.637 -11.708
O 246.967 24.490 -21.690
O 217.552 28.040 -2.982
O 44.125 26.015 -30.042
O 62.531 3.735 -4.241
O 227.276 11.108 -12.951
O 201.066 3.612 -22.718
O 31.979 26.669 -9.546
O 58.237 20.629 -12.735
O 238.966 27.923 -2.533
O 228.416 20.698 -22.258
O 191.449 25.643 -18.511
O 217.032 6.051 -14.690
O 245.320 16.685 -10.109
O 39.328 20.123 -23.831
O 37.219 16.329 -12.195
O 213.428 8.986 -29.531
O 214.025 8.627 -16.870
O 242.131 2.956 -20.316
O 219.833 28.043 -23.656
O 204.355 22.421 -18.921
O 211.565 27.750 -0.151
O 37.075 4.149 -14.783
O 189.831 28.976 -29.109
O 49.634 20.699 -12.601
O 61.351 8.673 -4.954
O 59.043 5.994 -2.334
O 201.594 30.161 -18.833
O 248.977 3.100 -1.625
O 45.218 6.745 -1.842
O 196.252 20.073 -23.636
O 232.137 22.546 -1.453
O 239.677 19.642 -29.081
O 208.150 17.492 -22.251
O 242.927 29.137 -2.141
O 61.853 5.213 -9.097
O 245.171 3.092 -31.391
O 61.118 31.115 -2.909
O 244.996 23.543 -18.637
O 199.987 19.511 -29.548
O 246.254 8.062 -11.206
O 196.885 24.203 -23.325
O 221.969 16.431 -20.931
O 219.082 29.664 -9.457
O 39.785 12.322 -20.877
O 47.059 12.415 -25.484
O 191.309 22.201 -22.556
O 61.218 13.064 -27.328
O 245.389 2.822 -9.104
O 201.957 21.722 -12.726
O 220.526 30.509 -11.656
O 41.499 17.559 -25.680
O 240.558 29.514 -21.024
O 207.403 27.061 -19.884
O 219.010 19.104 -0.588
O 203.476 11.934 -16.263
O 215.136 7.979 -24.465
O 55.131 5.279 -28.364
O 235.067 12.420 -27.636
O 236.947 3.698 -15.613
O 38.658 30.236 -16.948
O 220.798 7.286 -23.770
O 199.920 8.446 -23.529
O 199.650 0.876 -16.128
O 197.383 10.037 -17.495
O 234.377 26.505 -12.518
O 230.678 1.757 -26.152
O 205.577 10.077 -16.343
O 191.981 14.769 -10.802
O 34.591 19.361 -15.910
O 238.945 24.183 -22.567
O 241.680 14.244 -30.965
O 244.042 10.784 -4.991
O 42.458 12.379 -1.693
O 208.921 5.860 -2.233
O 207.618 21.856 -15.744
O 214.436 1.599 -26.609
O 215.043 26.414 -13.960
O 57.802 7.541 -21.983
O 48.850 29.327 -13.442
O 247.088 12.522 -11.167
O 32.078 2.323 -7.367
O 243.466 24.610 -24.561
O 34.753 22.328 -15.758
O 218.248 8.228 -1.513
O 249.762 14.664 -21.552
O 207.802 31.399 -24.394
O 46.324 25.963 -23.895
O 51.135 15.410 -25.022
O 220.433 6.937 -31.155
O 212.657 2.717 -8.715
O 220.001 15.607 -2.398
O 241.122 0.877 -28.694
O 192.570 25.601 -28.575
O 230.046 28.378 -19.708
O 44.279 6.784 -18.695
O 39.302 4.168 -30.413
O 239.151 8.262 -9.097
O 216.501 14.900 -11.013
O 224.891 19.506 -20.763
O 209.258 6.603 -5.758
O 188.004 21.810 -0.808
O 45.663 10.075 -17.288
O 236.023 31.338 -4.598
O 43.812 9.680 -0.025
O 46.242 7.366 -6.493
O 219.811 29.503 -17.186
O 50.854 14.313 -7.972
O 192.607 0.495 -20.115
O 227.752 6.205 -15.830
O 41.110 26.564 -24.072
O 59.686 27.056 -9.721
O 47.597 19.623 -22.540
O 228.070 2.583 -5.633
O 57.391 22.510 -24.448
O 233.486 19.370 -22.051
O 200.794 14.842 -1.498
O 226.477 29.855 -17.492
O 54.096 3.475 -4.256
O 245.040 10.996 -7.713
O 223.529 14.862 -13.953
O 43.292 20.236 -6.596
O 198.843 30.599 -18.092
O 248.619 27.027 -30.427
O 49.625 22.744 -9.162
O 231.426 13.233 -25.500
O 210.430 26.220 -23.924
O 42.467 29.572 -27.878
O 225.898 24.367 -31.354
O 212.122 28.736 -24.494
O 55.661 21.654 -6.317
O 239.197 16.857 -25.282
O 235.634 9.926 -23.144
O 240.720 16.571 -7.832
O 37.168 3.962 -18.937
O 197.809 8.689 -12.084
O 190.873 13.335 -18.098
O 245.561 22.099 -7.246
O 218.014 2.754 -25.753
O 41.730 2.132 -19.172
O 247.410 28.950 -29.012
O 207.718 13.899 -9.621
O 220.574 14.371 -30.669
O 64.032 5.237 -27.633
O 248.388 16.197 -15.956
O 230.709 1.815 -5.678
O 196.795 21.728 -2.380
O 242.271 17.196 -1.093
O 209.491 12.690 -25.113
O 33.750 19.107 -8.484
O 204.936 3.302 -24.731
O 46.038 11.204 -14.706
O 235.537 0.867 -24.561
O 32.905 18.416 -27.364
O 234.949 2.530 -8.814
O 203.033 3.127 -4.926
O 207.628 28.918 -28.620
O 43.297 1.155 -16.199
O 51.809 1.558 -16.655
O 34.271 25.668 -22.116
O 34.148 13.541 -11.410
O 224.196 6.848 -5.586
O 58.917 4.273 -19.236
O 216.166 13.413 -0.443
O 212.722 24.488 -24.381
O 55.375 5.497 -31.340
O 235.533 24.879 -3.197
O 36.515 0.783 -24.381
O 46.477 10.439 -27.249
O 215.599 22.778 -7.445
O 58.572 0.664 -10.088
O 191.885 4.876 -22.608
O 56.611 25.376 -24.244
O 233.970 18.061 -1.345
O 36.594 10.373 -1.740
O 192.498 9.302 -24.122
O 200.805 1.880 -5.691
O 249.075 22.867 -29.851
O 35.704 16.164 -6.017
O 43.779 27.252 -10.663
O 194.958 3.550 -19.760
O 245.733 7.360 -4.587
O 228.979 23.831 -17.406
O 200.788 30.067 -13.076
O 237.996 2.068 -24.820
O 249.954 2.715 -24.450
O 190.687 16.071 -17.068
O 189.335 28.468 -21.078
O 215.486 10.430 -4.842
O 233.148 28.992 -9.967
O 217.856 18.217 -10.450
O 240.149 3.647 -1.023
O 245.146 6.023 -0.138
O 222.639 18.716 -22.391
O 43.126 24.570 -5.259
O 250.643 20.191 -23.840
O 40.075 27.859 -7.230
O 243.672 2.191 -14.335
O 222.647 10.421 -18.256
O 52.199 1.997 -26.962
O 202.595 4.993 -24.452
O 58.455 3.274 -29.515
O 220.819 29.596 -29.594
O 240.082 11.179 -21.400
O 226.876 26.517 -20.319
O 199.467 6.459 -30.643
O 216.727 2.194 -28.130
O 57.414 9.776 -8.425
O 54.770 26.409 -2.056
O 230.517 16.416 -12.354
O 247.120 18.828 -15.961
O 214.135 28.221 -26.465
O 248.937 23.476 -8.327
O 214.383 24.685 -26.803
O 205.085 14.316 -1.424
O 53.920 0.565 -4.352
O 57.823 5.975 -30.058
O 201.158 13.247 -30.705
O 33.166 30.887 -5.795
O 219.289 1.459 -0.758
O 208.188 23.052 -3.863
O 60.019 3.473 -1.871
O 212.307 6.474 -29.223
O 53.986 19.540 -6.408
O 240.331 14.868 -20.493
O 227.631 4.049 -1.069
O 240.232 28.180 -30.311
O 227.505 22.889 -19.951
O 194.560 8.804 -18.669
O 221.863 24.712 -15.994
O 195.742 22.412 -25.526
O 191.368 22.271 -29.559
O 59.562 31.055 -7.019
O 232.120 9.351 -12.858
O 201.844 28.314 -20.977
O 232.968 24.013 -30.873
O 60.142 26.298 -28.868
O 201.028 28.089 -8.900
O 191.613 16.828 -29.360
O 205.680 15.893 -29.646
O 199.314 30.558 -9.525
O 231.753 25.555 -19.440
O 227.128 0.156 -25.975
O 44.456 3.865 -5.707
O 207.032 13.816 -15.933
O 237.911 30.127 -24.100
O 46.612 15.906 -17.902
O 225.621 14.868 -27.557
O 230.392 16.549 -31.036
O 230.109 29.755 -10.203
O 192.658 7.202 -20.850
O 234.648 19.094 -7.922
O 215.533 8.956 -19.353
O 229.270 24.843 -4.198
O 61.681 31.226 -9.792
O 224.290 13.643 -3.728
O 33.103 9.350 -15.825
O 57.150 10.134 -2.579
O 211.392 28.288 -8.656
O 209.545 26.147 -8.581
O 250.840 15.387 -28.082
O 209.211 26.964 -17.622
O 228.410 13.015 -14.819
O 43.953 4.104 -21.800
O 58.175 3.103 -6.437
O 207.618 15.802 -24.377
O 250.526 31.042 -12.012
O 245.137 22.416 -29.906
O 208.280 2.013 -13.143
O 241.044 13.639 -27.965
O 61.280 28.244 -0.053
O 194.033 18.610 -24.867
O 49.346 25.935 -5.077
O 45.750 3.741 -14.330
O 221.815 6.465 -2.026
O 46.249 11.262 -29.827
O 212.186 17.489 -29.065
O 43.603 12.460 -14.630
O 197.836 14.841 -21.152
O 238.169 5.897 -8.357
O 220.074 22.630 -29.088
O 47.772 7.606 -30.889
O 228.644 3.070 -14.949
O 188.937 24.985 -2.545
O 59.342 6.517 -8.903
O 244.681 17.118 -25.720
O 238.641 20.637 -13.734
O 244.952 30.839 -8.068
O 200.041 6.853 -13.650
O 43.783 26.872 -20.461
O 237.627 9.013 -25.071
O 33.043 12.795 -2.190
O 201.161 13.825 -7.345
O 43.247 28.859 -5.936
O 43.486 0.035 -9.735
O 214.633 22.015 -18.906
O 243.096 21.844 -21.679
O 37.475 13.400 -26.537
O 189.322 12.799 -2.152
O 207.123 15.741 -20.294
O 34.851 5.091 -23.289
O 41.618 14.181 -3.651
O 222.652 26.991 -24.330
O 207.097 4.365 -10.710
O 36.169 4.319 -28.925
O 188.830 2.424 -29.871
O 54.519 14.791 -27.808
O 56.453 20.509 -3.889
O 202.921 28.845 -17.050
O 205.735 29.156 -26.590
O 226.643 1.400 -7.500
O 36.964 16.026 -9.432
O 238.859 11.641 -4.042
O 197.282 10.629 -24.951
O 250.636 16.618 -14.562
O 59.505 7.861 -19.603
O 232.130 30.247 -4.334
O 34.873 26.266 -8.766
O 248.244 9.070 -14.388
O 218.681 21.022 -7.580
O 223.258 12.197 -20.344
O 243.954 0.149 -28.301
O 207.212 11.343 -14.682
O 208.433 28.481 -22.574
O 236.798 2.271 -10.687
O 58.634 17.095 -9.678
O 202.351 17.427 -30.301
O 239.613 16.146 -12.503
O 46.208 2.014 -11.780
O 237.766 27.456 -24.756
O 210.745 2.023 -27.473
O 38.285 22.288 -12.037
O 47.240 20.097 -28.634
O 199.119 26.665 -5.156
O 192.925 8.979 -8.395
O 229.661 5.037 -21.041
O 222.960 24.133 -18.507
O 45.443 23.998 -15.161
O 245.832 26.731 -12.130
O 195.880 15.763 -9.312
O 216.433 6.652 -10.808
O 204.793 26.810 -28.691
O 226.567 18.067 -12.721
O 207.594 1.916 -28.973
O 194.557 22.244 -17.480
O 54.788 26.825 -22.278
O 242.971 18.138 -16.702
O 248.325 1.781 -16.633
O 212.347 13.144 -10.116
O 234.404 3.555 -16.175
O 51.931 13.129 -23.392
O 215.326 29.862 -7.081
O 250.237 13.107 -3.882
O 214.577 19.189 -20.589
O 198.486 19.050 -22.609
O 37.251 6.273 -16.393
O 217.179 20.610 -5.267
O 226.677 15.391 -30.028
O 194.035 27.388 -18.490
O 39.922 29.319 -30.784
O 247.871 10.826 -7.448
O 197.324 28.214 -25.802
O 233.504 4.719 -13.338
O 192.519 13.502 -6.212
O 239.132 19.654 -21.160
O 33.996 27.314 -27.436
O 191.703 19.200 -9.704
O 213.061 11.979 -15.669
O 238.134 6.866 -16.427
O 40.247 6.710 -11.394
O 46.874 14.393 -9.919
O 50.537 1.317 -20.512
O 226.598 10.597 -18.665
O 247.875 28.447 -21.285
O 43.625 17.055 -21.490
O 52.414 3.804 -15.148
O 195.058 0.573 -10.610
O 193.061 6.569 -27.580
O 191.072 22.870 -18.954
O 39.719 19.652 -3.361
O 239.452 10.905 -12.745
O 220.116 3.868 -16.744
O 52.930 16.637 -19.641
O 48.774 9.397 -21.331
O 43.849 15.428 -25.804
O 222.718 30.244 -13.921
O 231.313 18.696 -1.516
O 37.776 15.580 -22.857
O 200.629 8.425 -16.465
O 244.598 18.709 -28.040
O 205.937 0.387 -26.661
O 54.001 15.680 -25.434
O 49.032 9.085 -26.750
O 238.838 7.530 -30.161
O 42.876 14.062 -21.966
O 237.334 27.506 -0.047
O 50.716 10.462 -24.928
O 237.713 27.943 -19.719
O 194.998 25.288 -5.460
O 229.650 13.986 -30.464
O 210.061 19.878 -9.081
O 236.573 18.529 -13.134
O 226.381 16.209 -10.650
O 43.020 8.365 -7.840
O 224.910 17.030 -14.453
O 44.560 26.680 -4.790
O 235.055 6.550 -25.411
O 215.731 13.215 -15.750
O 234.159 17.698 -17.413
O 199.840 12.715 -10.808
O 230.526 30.717 -24.977
O 196.363 6.706 -19.116
O 208.679 10.340 -9.851
O 34.360 18.028 -10.820
O 200.182 28.188 -26.667
O 225.358 2.603 -0.621
O 57.265 19.494 -0.287
O 55.280 13.966 -31.202
O 196.336 0.910 -16.380
O 223.245 4.278 -21.331
O 249.069 29.769 -26.904
O 34.907 21.481 -19.436
O 204.307 11.654 -27.957
O 219.889 8.606 -27.332
O 42.343 17.683 -15.088
O 200.654 26.366 -19.060
O 218.491 -0.015 -25.280
O 197.572 11.092 -31.442
O 228.740 24.885 -13.056
O 224.707 7.855 -22.502
O 227.041 9.032 -0.227
O 225.717 13.723 -15.664
O 232.337 24.628 -7.928
O 201.591 23.419 -15.625
O 36.876 9.844 -17.315
O 209.726 30.920 -27.701
O 218.737 5.854 -12.042
O 52.687 17.279 -22.517
O 206.914 10.712 -28.632
O 60.431 4.628 -11.882
O 247.652 6.866 -9.038
O 248.937 25.577 -10.045
O 52.814 10.957 -9.501
O 211.935 5.156 -3.926
O 246.931 5.921 -2.443
O 242.530 19.752 -7.376
O 197.830 20.471 -13.122
O 39.592 7.726 -28.161
O 211.693 15.427 -31.300
O 228.832 7.189 -18.254
O 241.752 12.056 -13.682
O 205.747 18.823 -21.915
O 236.738 30.325 -11.554
O 46.418 26.164 -19.480
O 234.257 29.939 -26.558
O 61.478 9.538 -17.806
O 63.544 29.213 -1.713
O 239.756 20.917 -25.306
O 195.079 11.988 -18.038
O 34.353 11.519 -19.580
O 61.246 9.075 -25.794
O 222.266 12.210 -26.948
O 45.693 0.522 -25.628
O 238.580 1.432 -14.259
O 246.997 2.779 -6.334
O 231.893 1.397 -19.191
O 224.106 7.594 -16.186
O 193.376 24.223 -22.054
O 42.333 11.471 -29.977
O 209.538 2.455 -21.764
O 234.823 15.004 -17.151
O 212.424 29.710 -13.043
O 48.543 11.083 -23.571
O 231.925 16.085 -28.904
O 238.526 10.595 -15.846
O 209.523 19.593 -3.673
O 241.343 10.922 -9.186
O 208.729 23.329 -11.139
O 249.416 9.815 -4.951
O 50.601 6.398 -15.589
O 206.538 29.433 -13.121
O 198.721 26.395 -12.163
O 40.911 16.861 -19.672
O 32.840 29.730 -22.708
O 226.421 19.205 -16.663
O 203.155 5.705 -6.737
O 198.235 1.448 -0.687
O 229.648 18.820 -18.469
O 228.407 0.409 -20.276
O 215.695 22.480 -27.266
O 47.401 27.723 -15.544
O 240.738 0.519 -3.959
O 47.217 12.071 -8.142
O 206.066 20.079 -4.446
O 55.549 4.477 -6.401
O 47.872 15.820 -27.925
O 239.160 14.364 -7.682
O 237.846 24.384 -4.506
O 223.343 2.012 -19.631
O 218.980 8.101 -5.786
O 193.487 25.175 -7.730
O 36.961 3.322 -26.692
O 216.891 0.317 -31.199
O 236.779 18.957 -0.603
O 225.848 13.413 -11.075
O 191.875 9.471 -5.183
O 215.435 15.817 -14.904
O 241.246 5.118 -2.908
O 32.692 25.146 -13.295
O 247.068 18.839 -31.150
O 198.938 23.811 -27.280
O 204.151 8.290 -17.907
O 61.486 26.012 -26.437
O 51.211 18.471 -4.718
O 201.626 3.386 -28.552
O 40.468 13.185 -31.022
O 194.601 9.214 -10.598
O 223.478 14.587 -8.297
O 234.428 4.719 -21.367
O 207.602 28.086 -1.578
O 51.711 8.459 -13.945
O 35.249 8.211 -12.067
O 246.827 4.145 -17.158
O 40.661 2.878 -16.442
O 220.152 23.222 -9.007
O 211.770 24.488 -17.014
O 35.451 18.705 -2.174
O 237.373 26.809 -21.980
O 33.126 13.490 -17.990
O 43.261 0.105 -5.862
O 245.951 2.994 -23.348
O 57.485 29.580 -11.992
O 217.884 28.212 -11.396
O 244.270 29.402 -4.706
O 204.212 6.164 -19.707
O 224.595 6.190 -20.150
O 244.766 13.790 -28.633
O 241.559 1.428 -12.487
O 233.015 5.469 -23.739
O 215.654 21.421 -23.794
O 58.154 0.025 -2.583
O 199.980 13.700 -22.562
O 207.179 6.500 -17.765
O 41.763 6.607 -25.330
O 45.542 9.941 -8.576
O 197.822 21.103 -19.768
O 45.811 25.704 -8.888
O 239.636 18.113 -0.247
O 202.843 18.069 -27.655
O 202.228 4.319 -9.373
O 205.478 29.438 -3.015
O 57.666 18.570 -5.742
O 38.117 20.486 -7.605
O 32.118 10.897 -0.053
O 231.179 11.048 -8.556
O 241.709 25.717 -26.419
O 197.408 20.525 -30.009
O 187.812 16.653 -3.479
O 194.166 6.075 -30.147
O 191.871 17.325 -0.492
O 229.270 17.058 -4.014
O 36.351 27.318 -25.331
O 214.328 30.689 -27.888
O 187.071 13.625 -3.638
O 44.449 17.190 -18.702
O 49.814 15.633 -5.690
O 197.283 13.331 -9.769
O 53.941 17.198 -4.201
O 209.709 5.740 -17.378
O 208.597 8.318 -0.956
O 52.916 10.804 -2.825
O 195.683 9.554 -29.434
O 55.964 21.099 -29.952
O 229.711 5.243 -13.060
O 235.597 0.124 -14.816
O 215.601 3.211 -14.408
O 217.238 16.104 -3.464
O 198.571 9.082 -3.698
O 215.199 16.003 -8.731
O 239.408 12.833 -23.500
O 56.320 30.683 -4.430
O 192.548 17.694 -12.470
O 242.024 28.908 -16.862
O 39.827 28.122 -10.532
O 48.560 18.342 -26.893
O 250.832 27.824 -2.983
O 58.108 16.578 -16.742
O 39.268 0.658 -13.387
O 238.317 13.794 -28.607
O 189.460 21.773 -15.707
O 235.033 27.352 -24.888
O 240.009 3.337 -29.554
O 39.274 9.378 -11.072
O 198.709 0.357 -28.544
O 52.615 12.567 -26.143
O 205.892 3.919 -31.012
O 236.216 12.692 -23.432
O 219.367 25.250 -15.298
O 212.735 17.368 -25.638
O 231.625 7.567 -26.620
O 246.205 28.221 -1.893
O 40.922 19.142 -13.287
O 211.767 10.791 -28.157
O 236.158 9.049 -20.551
O 223.993 2.061 -7.538
O 199.727 29.551 -23.342
O 209.255 22.518 -1.480
O 40.270 2.682 -7.735
O 198.386 19.965 -7.664
O 241.235 14.713 -3.356
O 241.160 26.998 -1.256
O 211.398 6.316 -10.069
O 56.170 9.845 -18.648
O 51.200 29.329 -23.945
O 52.065 15.243 -3.984
O 34.902 19.045 -5.735
O 190.044 8.134 -25.315
O 219.188 14.391 -21.799
O 51.163 13.007 -28.581
O 251.091 1.200 -14.291
O 193.325 8.091 -15.651
O 225.379 15.187 -18.564
O 205.056 22.441 -12.405
O 55.291 24.398 -3.790
O 52.449 24.936 -1.686
O 242.565 6.910 -1.242
O 206.821 17.963 -2.542
O 249.458 12.759 -8.531
O 227.495 8.646 -5.392
O 244.001 10.622 -13.094
O 204.527 0.835 -21.952
O 211.315 6.444 -21.384
O 226.089 1.732 -13.901
O 222.598 31.423 -21.242
O 202.781 7.859 -0.826
O 205.900 0.656 -14.896
O 231.680 3.154 -14.600
O 237.692 5.260 -0.331
O 191.913 30.340 -0.102
O 237.318 28.757 -9.295
O 33.944 1.523 -24.903
O 35.320 21.308 -8.383
O 250.323 8.565 -10.738
O 229.616 21.261 -16.959
O 39.864 26.035 -18.470
O 241.808 3.813 -17.666
O 192.362 28.655 -2.260
O 227.938 14.056 -23.198
O 216.605 12.630 -6.281
O 48.126 27.606 -30.715
O 46.640 14.164 -19.924
O 228.076 23.255 -26.243
O 192.494 5.025 -12.514
O 211.754 14.452 -25.293
O 44.579 28.156 -15.517
O 240.169 22.308 -21.033
O 55.578 17.768 -1.915
O 187.945 12.990 -31.041
O 215.753 26.884 -18.440
O 189.738 22.627 -27.177
O 217.049 30.700 -2.211
O 240.262 27.558 -18.936
O 190.658 15.768 -7.666
O 62.462 26.381 -3.596
O 217.645 10.984 -13.414
O 222.388 1.173 -3.936
O 226.403 7.589 -2.730
O 241.503 13.088 -7.675
O 44.688 3.223 -26.291
O 38.209 27.407 -0.109
O 61.572 29.604 -5.560
O 39.333 23.895 -27.328
O 60.350 18.037 -2.096
O 45.125 22.769 -19.449
O 211.366 9.206 -10.878
O 35.383 11.529 -30.854
O 240.766 30.278 -23.457
O 233.130 6.190 -10.887
O 49.199 22.003 -6.389
O 57.640 23.015 -14.467
O 190.682 22.842 -6.384
O 195.616 24.817 -9.985
O 39.529 9.589 -16.996
O 61.107 4.017 -29.493
O 224.146 7.533 -8.362
O 236.512 22.001 -12.570
O 216.971 17.819 -26.230
O 48.372 16.652 -20.161
O 198.879 9.249 -28.041
O 223.533 8.693 -2.485
O 230.123 7.495 -3.420
O 236.677 11.428 -18.997
O 214.740 12.977 -21.375
O 244.448 12.008 -1.163
O 232.064 28.765 -23.331
O 213.746 27.334 -6.265
O 37.111 2.356 -10.114
O 203.030 11.962 -13.433
O 233.118 2.286 -10.986
O 47.145 21.680 -26.315
O 221.808 26.749 -12.146
O 231.781 10.122 -0.280
O 230.980 7.243 -22.568
O 237.753 11.280 -29.720
O 197.858 1.907 -8.562
O 219.646 21.132 -13.650
O 201.761 11.588 -24.738
O 53.685 23.584 -17.515
O 201.418 27.545 -29.769
O 217.641 0.200 -6.343
O 193.289 18.887 -5.890
O 197.641 12.602 -26.890
O 55.159 9.853 -29.443
O 39.439 11.788 -2.082
O 241.430 26.390 -16.209
O 47.812 26.464 -12.599
O 52.551 21.252 -25.384
O 244.319 4.758 -25.174
O 248.728 11.368 -0.503
O 45.069 16.707 -14.763
O 234.386 1.821 -29.770
O 200.770 16.253 -23.591
O 61.122 20.377 -16.833
O 222.201 24.910 -9.774
O 239.145 1.509 -18.398
O 228.444 29.220 -4.706
O 227.584 8.583 -13.573
O 51.872 6.301 -18.082
O 205.957 20.245 -19.433
O 203.557 19.235 -5.659
O 42.731 19.965 -25.161
O 54.248 18.678 -12.393
O 54.579 5.491 -17.706
O 57.790 14.505 -0.824
O 45.722 24.681 -0.330
O 213.869 4.475 -26.745
O 243.950 24.929 -29.690
O 205.288 20.836 -0.798
O 45.738 6.638 -29.275
O 49.831 5.915 -0.712
O 243.770 17.528 -13.995
O 32.289 8.971 -23.886
O 212.773 3.084 -29.157
O 250.634 0.157 -3.393
O 36.076 30.848 -21.043
O 219.303 16.857 -30.353
O 52.310 9.034 -18.462
O 203.223 28.830 -27.849
O 50.708 30.961 -9.882
O 208.777 14.990 -29.396
O 32.950 3.812 -19.117
O 59.516 7.574 -11.486
O 245.604 27.183 -15.499
O 215.540 23.756 -13.051
O 193.969 25.095 -17.195
O 199.295 14.665 -3.699
O 188.440 30.633 -9.258
O 209.052 31.104 -15.044
O 231.754 1.976 -28.781
O 37.488 22.523 -20.280
O 32.123 2.033 -29.832
O 231.801 31.188 -31.100
O 224.288 29.278 -24.642
O 215.707 20.653 -13.734
O 50.402 23.438 -4.244
O 189.296 16.668 -1.220
O 224.582 18.682 -5.833
O 247.086 30.584 -14.161
O 230.398 9.541 -17.990
O 192.163 13.777 -20.485
O 39.050 18.180 -9.178
O 47.370 4.853 -5.477
O 225.705 24.850 -18.442
O 33.941 16.193 -12.776
O 42.027 3.767 -2.746
O 202.558 17.608 -3.729
O 37.130 6.930 -28.895
O 221.545 0.643 -7.938
O 223.652 21.034 -29.898
O 249.885 27.047 -17.689
O 58.080 6.065 -14.799
O 44.145 0.528 -18.748
O 217.815 25.774 -9.669
O 196.730 29.232 -16.305
O 200.320 20.841 -20.376
O 53.975 3.066 -10.655
O 198.883 17.146 -28.892
O 49.341 13.888 -26.594
O 60.146 9.922 -29.779
O 51.491 17.444 -31.183
O 222.096 9.195 -22.209
O 216.123 8.651 -14.750
O 58.289 11.366 -18.383
O 38.037 19.902 -21.247
O 241.637 6.333 -10.315
O 52.404 0.421 -1.138
O 192.019 17.690 -3.702
O 56.384 18.585 -17.301
O 203.147 18.876 -11.813
O 234.233 1.451 -22.135
O 43.404 19.468 -11.821
O 51.993 19.174 -18.084
O 58.312 9.227 -0.391
O 249.395 9.090 -22.300
O 202.331 -0.007 -11.447
O 37.395 1.677 -29.654
O 32.245 9.949 -20.623
O 54.206 24.139 -13.068
O 211.194 7.754 -4.333
O 40.395 5.335 -6.809
O 42.623 21.528 -16.244
O 225.522 9.868 -9.449
O 59.032 10.171 -27.245
O 51.249 4.578 -6.738
O 203.029 30.135 -9.225
O 43.392 4.248 -19.131
O 190.918 25.038 -26.074
O 232.241 15.687 -18.882
O 52.491 8.372 -10.620
O 197.569 30.714 -30.726
O 200.618 10.498 -9.316
O 235.379 17.490 -22.945
O 39.114 14.214 -4.877
O 208.574 4.626 -31.170
O 191.580 0.497 -17.472
O 206.612 31.210 -30.341
O 216.890 3.141 -20.119
O 234.748 26.423 -22.236
O 32.411 9.368 -28.426
O 36.359 24.934 -23.929
O 227.070 4.789 -20.111
O 221.635 1.624 -10.621
O 246.443 31.211 -29.634
O 251.108 20.883 -17.630
O 33.931 19.172 -24.402
O 219.802 10.712 -11.777
O 236.606 8.124 -12.000
O 49.489 20.541 -25.249
O 49.687 29.805 -28.140
O 238.547 26.442 -28.908
O 230.250 17.721 -27.198
O 220.204 12.192 -8.096
O 52.895 10.836 -13.931
O 235.490 10.031 -9.862
O 203.546 14.229 -27.844
O 244.012 4.567 -16.220
O 211.909 12.577 -21.424
O 37.684 19.573 -17.614
O 33.900 5.858 -29.855
O 52.593 25.490 -21.733
O 244.397 4.674 -6.540
O 36.844 8.104 -0.185
O 239.725 4.923 -14.879
O 203.713 0.176 -2.824
O 38.838 18.428 -5.769
O 196.251 22.053 -8.161
O 62.721 0.091 -21.043
O 196.371 0.841 -25.730
O 218.842 23.842 -3.933
O 247.957 6.123 -14.149
O 202.375 18.536 -22.916
O 225.828 10.699 -6.487
O 189.634 24.636 -30.066
O 243.807 11.235 -28.928
O 41.026 30.846 -9.601
O 62.785 0.640 -6.024
O 210.158 17.107 -13.043
O 247.260 29.090 -11.585
O 211.565 5.640 -25.629
O 38.357 7.446 -23.491
O 57.895 24.347 -4.612
O 201.068 5.998 -4.450
O 33.659 3.671 -26.648
O 240.442 24.800 -18.148
O 195.157 11.564 -23.792
O 222.405 4.726 -5.384
O 233.722 28.234 -28.991
O 187.566 22.845 -29.321
O 212.371 4.509 -0.401
O 39.266 2.836 -2.912
O 193.795 1.218 -16.117
O 245.584 20.988 -14.749
O 204.060 24.557 -16.972
O 250.939 4.618 -29.249
O 228.376 29.135 -26.103
O 190.331 4.906 -18.905
O 229.413 14.036 -5.763
O 221.233 30.053 -4.276
O 245.072 14.110 -20.516
O 34.043 7.454 -19.367
O 216.030 5.849 -5.413
O 208.288 1.477 -4.138
O 216.708 31.239 -23.181
O 216.657 20.938 -2.215
O 48.880 22.514 -23.420
O 63.284 4.967 -24.834
O 209.506 17.316 -0.834
O 209.086 18.240 -18.281
O 192.809 12.370 -9.993
O 243.068 21.308 -3.720
O 242.383 24.067 -11.257
O 243.507 19.965 -1.446
O 221.410 3.847 -2.581
O 204.253 26.918 -18.348
O 32.396 23.894 -20.174
O 247.329 14.626 -5.605
O 202.598 13.581 -3.071
O 219.662 2.469 -22.789
O 38.591 21.309 -1.476
O 41.479 30.708 -2.014
O 238.145 18.840 -27.092
O 42.941 6.890 -22.814
O 212.507 0.480 -0.600
O 200.942 27.029 -1.739
O 46.278 28.767 -1.122
C 137.712 5.817 -11.370
O 138.296 5.257 -12.202
O 137.129 6.377 -10.539
C 108.069 16.862 -11.423
O 107.812 16.913 -12.553
O 108.325 16.811 -10.293
C 164.873 28.880 -29.780
O 163.896 28.814 -30.403
O 165.849 28.945 -29.157
C 62.935 18.321 -30.624
O 62.130 17.756 -31.239
O 63.740 18.887 -30.009
C 186.851 4.942 -30.142
O 187.104 4.826 -31.268
O 186.599 5.057 -29.015
C 59.065 12.073 -6.436
O 59.581 11.524 -5.554
O 58.550 12.623 -7.318
C 65.117 1.032 -23.291
O 65.624 0.029 -23.578
O 64.609 2.035 -23.005
C 159.442 0.489 -15.501
O 158.938 1.034 -16.392
O 159.947 31.376 -14.610
C 32.196 20.971 -1.255
O 251.071 20.583 -0.318
O 32.759 21.360 -2.192
C 139.945 16.028 -23.895
O 140.569 15.126 -24.272
O 139.320 16.930 -23.518
C 132.791 14.625 -1.857
O 132.800 14.332 -0.734
O 132.781 14.917 -2.979
C 113.416 23.961 -10.843
O 113.023 24.277 -9.798
O 113.809 23.644 -11.887
C 67.594 4.248 -6.918
O 68.581 4.688 -6.495
O 66.608 3.809 -7.341
C 87.678 4.856 -17.707
O 87.956 5.502 -18.629
O 87.400 4.211 -16.784
C 58.548 28.915 -26.234
O 59.019 27.898 -26.533
O 58.077 29.932 -25.935
C 92.962 16.023 -10.900
O 93.504 15.748 -9.912
O 92.420 16.298 -11.888
C 77.457 0.471 -26.959
O 78.282 31.374 -26.339
O 76.632 1.000 -27.580
C 151.176 3.850 -8.959
O 150.192 3.449 -9.425
O 152.160 4.250 -8.493
C 185.762 1.333 -17.312
O 185.131 1.799 -18.166
O 186.393 0.866 -16.458
C 147.160 19.876 -15.508
O 146.087 19.577 -15.185
O 148.233 20.175 -15.830
C 64.465 15.244 -14.476
O 63.445 15.143 -13.932
O 65.485 15.345 -15.019
C 146.445 23.901 -12.634
O 146.333 23.779 -11.486
O 146.557 24.023 -13.782
C 188.523 11.595 -24.647
O 188.843 11.199 -23.604
O 188.204 11.990 -25.689
C 188.469 6.872 -22.233
O 188.229 6.343 -21.229
O 188.708 7.401 -23.238
C 77.014 21.280 -7.609
O 76.884 20.539 -6.727
O 77.144 22.022 -8.492
C 82.744 26.538 -0.814
O 83.604 27.315 -0.863
O 81.884 25.761 -0.765
C 46.585 29.574 -21.942
O 45.425 29.570 -21.965
O 47.745 29.578 -21.919
C 157.325 4.149 -17.345
O 157.617 4.758 -18.288
O 157.033 3.541 -16.401
C 105.540 8.243 -25.714
O 105.024 8.874 -26.539
O 106.056 7.612 -24.888
C 97.300 30.836 -29.995
O 96.425 30.519 -29.303
O 98.175 31.152 -30.688
C 195.540 30.904 -20.551
O 195.145 31.127 -21.618
O 195.935 30.680 -19.483
C 84.724 20.645 -15.941
O 83.845 20.510 -15.195
O 85.602 20.781 -16.686
C 185.643 14.213 -17.945
O 184.496 14.155 -18.110
O 186.790 14.271 -17.780
C 83.683 24.976 -27.568
O 82.926 24.507 -28.312
O 84.440 25.444 -26.824
C 75.703 17.323 -22.487
O 75.817 16.249 -22.064
O 75.588 18.397 -22.909
C 188.776 15.106 -20.748
O 189.134 14.005 -20.819
O 188.417 16.207 -20.677
C 164.236 21.723 -7.397
O 163.785 20.662 -7.528
O 164.686 22.784 -7.267
C 171.814 12.783 -16.488
O 171.829 12.680 -15.332
O 171.800 12.887 -17.643
C 113.223 8.068 -7.727
O 112.348 8.553 -8.314
O 114.098 7.583 -7.139
C 184.975 10.124 -0.743
O 185.130 10.929 -1.564
O 184.819 9.320 -31.355
C 101.239 9.216 -16.336
O 101.655 10.101 -15.712
O 100.823 8.330 -16.959
C 126.419 6.488 -16.352
O 127.342 6.004 -16.861
O 125.496 6.973 -15.843
C 183.335 4.121 -19.531
O 183.920 4.754 -20.308
O 182.751 3.488 -18.754
C 64.184 21.933 -17.858
O 63.635 22.683 -17.163
O 64.733 21.184 -18.552
C 184.440 26.311 -2.113
O 184.119 25.862 -1.093
O 184.761 26.760 -3.133
C 61.302 22.634 -2.851
O 60.376 23.270 -3.141
O 62.228 21.997 -2.562
C 60.628 29.806 -18.155
O 59.492 29.639 -18.320
O 61.764 29.972 -17.990
C 107.034 7.571 -14.422
O 106.152 8.219 -14.807
O 107.915 6.923 -14.036
C 91.977 2.804 -10.030
O 91.359 3.472 -9.310
O 92.596 2.137 -10.749
C 67.710 0.411 -29.139
O 66.863 31.308 -28.554
O 68.556 0.947 -29.724
C 79.951 4.790 -1.643
O 80.521 3.785 -1.532
O 79.382 5.794 -1.754
C 141.936 29.864 -7.024
O 142.308 30.313 -6.021
O 141.564 29.415 -8.026
C 69.571 10.847 -11.819
O 68.794 10.283 -11.167
O 70.347 11.412 -12.471
C 65.188 15.463 -9.969
O 65.237 14.535 -9.274
O 65.139 16.391 -10.663
C 169.976 20.219 -9.413
O 170.381 19.262 -8.896
O 169.572 21.175 -9.930
C 138.004 1.920 -6.684
O 138.290 2.145 -7.785
O 137.718 1.695 -5.583
C 82.307 2.770 -9.653
O 82.602 3.510 -10.497
O 82.013 2.031 -8.809
C 154.387 21.991 -16.322
O 153.281 22.119 -15.999
O 155.494 21.863 -16.645
C 138.421 25.285 -27.149
O 139.173 25.123 -26.281
O 137.670 25.446 -28.018
C 91.564 18.237 -17.316
O 90.780 18.333 -16.466
O 92.348 18.142 -18.165
C 162.826 20.851 -4.215
O 163.773 21.521 -4.196
O 161.879 20.181 -4.234
C 175.282 24.968 -21.960
O 174.953 25.674 -22.820
O 175.611 24.262 -21.101
C 182.778 28.314 -24.775
O 183.350 27.763 -23.929
O 182.207 28.864 -25.621
C 182.274 8.997 -25.929
O 182.847 8.175 -26.514
O 181.702 9.818 -25.344
C 161.479 3.665 -24.768
O 160.672 4.474 -24.564
O 162.285 2.857 -24.972
C 169.303 22.064 -6.547
O 170.170 21.335 -6.795
O 168.435 22.793 -6.300
C 185.266 19.102 -11.743
O 186.053 19.920 -11.983
O 184.478 18.285 -11.504
C 97.956 14.892 -12.553
O 99.087 14.671 -12.688
O 96.825 15.113 -12.419
C 181.498 9.890 -14.551
O 181.505 9.493 -15.641
O 181.491 10.287 -13.461
C 140.240 6.446 -7.852
O 141.038 7.164 -7.413
O 139.441 5.728 -8.291
C 214.108 28.998 -30.622
O 213.973 28.302 -29.703
O 214.242 29.694 -0.108
C 180.176 2.607 -23.850
O 180.964 2.620 -22.998
O 179.389 2.593 -24.702
C 247.953 11.685 -26.234
O 247.217 11.101 -25.554
O 248.690 12.268 -26.914
C 103.987 9.248 -1.026
O 102.907 8.849 -1.165
O 105.067 9.648 -0.887
C 152.689 15.352 -26.491
O 152.753 14.827 -27.523
O 152.625 15.878 -25.459
C 135.917 5.194 -7.064
O 135.500 6.075 -7.693
O 136.335 4.314 -6.435
C 184.891 16.570 -28.011
O 183.829 16.585 -28.477
O 185.954 16.555 -27.545
C 189.870 30.983 -26.501
O 189.220 0.294 -27.110
O 190.520 30.240 -25.892
C 191.835 3.724 -30.162
O 191.973 4.293 -29.160
O 191.698 3.156 -31.163
C 185.748 20.759 -28.351
O 185.238 20.826 -29.391
O 186.258 20.691 -27.312
C 206.142 0.294 -10.642
O 206.684 30.732 -10.392
O 205.599 1.288 -10.893
C 189.885 5.677 -2.308
O 190.576 5.011 -1.656
O 189.194 6.343 -2.960
C 178.629 20.728 -24.534
O 178.144 19.709 -24.267
O 179.115 21.747 -24.801
C 77.626 23.126 -2.900
O 78.557 22.485 -3.160
O 76.694 23.766 -2.640
C 93.702 18.334 -30.974
O 93.576 18.168 -29.833
O 93.828 18.499 -0.683
C 128.880 5.266 -26.038
O 128.577 6.370 -26.229
O 129.182 4.163 -25.847
C 188.240 26.637 -6.344
O 188.180 27.726 -6.740
O 188.299 25.549 -5.948
C 186.732 25.927 -25.032
O 187.070 25.791 -26.133
O 186.393 26.063 -23.931
C 66.366 18.741 -21.273
O 66.461 18.427 -22.385
O 66.271 19.055 -20.160
C 195.029 26.928 -27.096
O 195.166 25.865 -26.651
O 194.892 27.991 -27.540
C 134.218 12.483 -4.117
O 133.817 12.971 -5.091
O 134.618 11.995 -3.144
C 83.046 4.633 -16.349
O 83.804 3.759 -16.270
O 82.288 5.508 -16.429
C 137.440 29.732 -3.110
O 136.325 29.970 -2.895
O 138.554 29.493 -3.325
C 65.038 8.690 -26.344
O 65.465 8.859 -27.409
O 64.612 8.521 -25.279
C 232.510 15.814 -14.570
O 231.610 15.113 -14.780
O 233.409 16.516 -14.359
C 82.143 21.071 -7.062
O 82.018 20.936 -8.208
O 82.268 21.206 -5.917
C 61.514 13.111 -2.591
O 61.611 13.125 -1.436
O 61.418 13.097 -3.747
C 123.091 11.182 -13.394
O 123.713 10.293 -12.985
O 122.468 12.071 -13.803
C 63.876 8.481 -21.003
O 64.947 8.927 -21.015
O 62.805 8.035 -20.990
C 167.660 11.479 -19.969
O 167.741 11.729 -18.840
O 167.580 11.228 -21.099
C 144.088 4.697 -9.893
O 145.159 4.942 -10.264
O 143.016 4.452 -9.521
C 63.710 14.847 -28.186
O 64.468 14.140 -27.665
O 62.953 15.554 -28.706
C 119.861 3.419 -29.872
O 119.621 3.600 -30.992
O 120.102 3.238 -28.751
C 82.090 21.452 -26.047
O 83.209 21.684 -25.849
O 80.971 21.219 -26.244
C 184.146 12.687 -5.108
O 184.115 12.980 -3.986
O 184.178 12.393 -6.230
C 93.511 2.005 -30.277
O 94.449 1.324 -30.332
O 92.573 2.685 -30.223
C 186.957 18.334 -17.302
O 187.929 17.895 -17.759
O 185.985 18.773 -16.846
C 65.865 7.909 -14.430
O 65.937 8.866 -13.777
O 65.794 6.953 -15.082
C 178.117 19.148 -12.575
O 178.082 20.159 -13.144
O 178.152 18.138 -12.006
C 152.219 15.353 -0.649
O 152.710 15.566 -31.052
O 151.728 15.140 -1.678
C 89.186 28.151 -11.034
O 90.163 28.204 -10.411
O 88.209 28.098 -11.657
C 81.176 7.768 -14.517
O 81.591 7.057 -13.699
O 80.761 8.478 -15.335
C 65.750 26.177 -4.413
O 65.552 25.221 -5.039
O 65.947 27.133 -3.787
C 104.059 15.269 -9.145
O 104.765 14.562 -9.735
O 103.353 15.976 -8.555
C 46.027 7.434 -23.641
O 45.690 6.331 -23.524
O 46.364 8.538 -23.758
C 63.842 22.980 -9.935
O 64.808 22.823 -9.312
O 62.876 23.137 -10.557
C 169.921 20.679 -15.011
O 170.514 21.410 -15.688
O 169.327 19.947 -14.334
C 148.253 2.368 -0.379
O 147.612 2.607 -30.874
O 148.894 2.128 -1.315
C 160.019 12.233 -12.924
O 159.830 13.256 -12.411
O 160.209 11.210 -13.436
C 181.432 13.651 -19.068
O 180.696 14.205 -18.363
O 182.167 13.097 -19.773
C 72.227 9.513 -9.825
O 71.948 8.392 -9.929
O 72.507 10.634 -9.720
C 64.886 26.220 -29.898
O 65.326 25.154 -30.022
O 64.445 27.286 -29.774
C 86.695 3.935 -13.691
O 87.394 3.149 -13.202
O 85.995 4.720 -14.180
C 188.454 8.183 -12.370
O 188.826 7.358 -11.644
O 188.083 9.009 -13.095
C 81.516 18.220 -26.015
O 82.414 18.146 -26.746
O 80.619 18.295 -25.284
C 71.288 15.385 -20.290
O 71.032 16.371 -19.735
O 71.545 14.399 -20.845
C 66.053 22.263 -29.706
O 65.821 22.782 -28.695
O 66.285 21.744 -30.717
C 69.331 28.997 -24.786
O 68.591 28.657 -25.613
O 70.071 29.337 -23.960
C 131.508 11.799 -27.584
O 130.869 12.747 -27.389
O 132.147 10.851 -27.778
C 184.189 15.892 -13.092
O 183.290 15.656 -12.398
O 185.088 16.128 -13.786
C 176.740 9.997 -29.764
O 176.924 11.045 -30.227
O 176.557 8.950 -29.301
C 133.199 9.706 -5.212
O 132.592 9.350 -4.289
O 133.805 10.062 -6.134
C 63.902 5.257 -13.469
O 64.232 5.907 -12.567
O 63.572 4.607 -14.371
C 182.485 5.836 -16.533
O 181.392 5.731 -16.158
O 183.578 5.940 -16.908
C 183.162 22.779 -8.216
O 183.712 23.670 -8.716
O 182.613 21.888 -7.716
C 182.227 10.684 -22.211
O 182.584 11.695 -22.654
O 181.870 9.673 -21.768
C 97.214 28.217 -13.608
O 96.062 28.091 -13.670
O 98.365 28.343 -13.546
C 65.630 17.575 -3.446
O 65.132 17.544 -2.398
O 66.128 17.606 -4.493
C 181.195 25.300 -2.436
O 181.857 24.474 -2.910
O 180.534 26.126 -1.961
C 101.244 19.862 -25.190
O 100.923 20.778 -24.554
O 101.565 18.947 -25.826
C 185.005 3.216 -25.832
O 186.163 3.221 -25.883
O 183.846 3.210 -25.780
C 59.793 13.207 -11.211
O 60.233 12.969 -12.257
O 59.353 13.446 -10.164
C 105.039 20.888 -1.215
O 104.386 21.837 -1.356
O 105.691 19.939 -1.075
C 127.750 21.282 -25.393
O 127.601 20.818 -26.446
O 127.898 21.747 -24.341
C 155.727 8.214 -4.690
O 156.037 8.343 -3.580
O 155.416 8.085 -5.800
C 186.780 4.345 -15.199
O 187.886 4.221 -15.529
O 185.675 4.470 -14.870
C 242.890 0.815 -23.971
O 243.040 0.372 -25.032
O 242.741 1.258 -22.909
C 61.624 1.020 -14.291
O 61.313 2.119 -14.091
O 61.934 31.353 -14.492
C 112.711 28.975 -21.608
O 112.968 27.846 -21.530
O 112.455 30.104 -21.685
C 65.779 5.336 -30.867
O 64.750 5.740 -31.217
O 66.808 4.931 -30.516
C 65.601 2.595 -28.817
O 64.855 2.343 -29.668
O 66.347 2.848 -27.965
C 78.029 15.712 -29.794
O 77.969 15.264 -30.863
O 78.089 16.159 -28.726
C 115.951 4.001 -19.759
O 115.553 5.087 -19.665
O 116.349 2.916 -19.853
C 64.862 29.421 -8.117
O 65.401 28.547 -7.578
O 64.321 30.295 -8.656
C 185.930 28.820 -30.782
O 186.082 29.399 -29.788
O 185.778 28.241 -0.344
C 98.965 11.791 -30.345
O 98.756 11.225 -31.335
O 99.173 12.357 -29.354
C 176.920 0.024 -25.121
O 176.323 0.810 -25.731
O 177.518 30.671 -24.512
C 184.920 29.155 -13.201
O 185.337 28.448 -12.381
O 184.504 29.862 -14.021
C 180.643 8.662 -2.079
O 179.719 8.040 -1.753
O 181.566 9.284 -2.404
C 162.050 24.863 -6.925
O 161.741 25.765 -7.587
O 162.358 23.962 -6.263
C 153.293 1.455 -11.133
O 153.372 1.179 -12.257
O 153.215 1.732 -10.010
C 79.966 9.629 -4.517
O 79.915 8.483 -4.344
O 80.016 10.775 -4.691
C 186.144 13.028 -23.661
O 185.461 12.134 -23.378
O 186.826 13.922 -23.944
C 186.480 28.285 -16.261
O 187.401 28.983 -16.361
O 185.559 27.587 -16.161
C 121.784 23.021 -0.638
O 121.006 23.282 -1.457
O 122.563 22.759 -31.251
C 123.298 12.767 -8.143
O 122.654 13.376 -7.394
O 123.941 12.159 -8.892
C 184.892 13.692 -30.559
O 185.012 12.699 -29.972
O 184.773 14.685 -31.146
C 142.877 21.015 -14.559
O 143.173 21.366 -13.494
O 142.581 20.665 -15.625
C 189.039 13.431 -14.158
O 189.151 12.338 -13.786
O 188.926 14.524 -14.530
C 45.968 14.744 -0.963
O 45.698 15.212 -1.989
O 46.238 14.275 -31.369
C 169.687 29.056 -14.861
O 169.356 29.995 -15.457
O 170.019 28.118 -14.266
C 180.092 29.770 -9.713
O 181.228 30.004 -9.732
O 178.956 29.536 -9.694
C 90.279 5.583 -6.788
O 90.240 4.668 -6.076
O 90.318 6.498 -7.499
C 244.985 0.819 -17.076
O 245.104 1.240 -18.150
O 244.867 0.397 -16.001
C 191.090 4.204 -15.063
O 190.917 5.350 -15.106
O 191.262 3.058 -15.020
C 181.505 1.418 -16.803
O 182.277 0.553 -16.759
O 180.733 2.283 -16.847
C 118.895 16.761 -24.879
O 118.489 16.144 -23.985
O 119.300 17.378 -25.774
C 184.791 5.528 -2.284
O 184.361 6.254 -1.487
O 185.220 4.803 -3.081
C 229.845 20.185 -6.873
O 230.666 20.630 -7.562
O 229.024 19.741 -6.185
C 94.788 12.351 -21.019
O 94.076 11.443 -20.892
O 95.500 13.258 -21.146
C 180.710 16.334 -7.891
O 181.808 16.692 -7.783
O 179.611 15.977 -7.999
C 42.469 16.101 -9.112
O 41.661 16.879 -8.816
O 43.277 15.323 -9.408
C 99.031 13.493 -3.630
O 98.688 13.263 -2.546
O 99.375 13.723 -4.714
C 179.875 28.006 -28.386
O 179.282 28.993 -28.244
O 180.468 27.020 -28.529
C 70.282 8.743 -15.118
O 70.951 9.673 -15.297
O 69.613 7.812 -14.939
C 82.641 30.328 -2.811
O 82.782 30.248 -3.959
O 82.499 30.408 -1.662
C 144.822 6.538 -25.095
O 144.003 7.345 -25.247
O 145.641 5.731 -24.943
C 176.886 26.980 -25.737
O 177.639 27.136 -24.868
O 176.134 26.823 -26.606
C 86.562 7.487 -25.631
O 85.925 6.725 -25.032
O 87.199 8.249 -26.230
C 141.492 27.552 -4.044
O 142.473 27.788 -3.472
O 140.510 27.317 -4.616
C 109.384 23.411 -23.297
O 108.862 24.442 -23.387
O 109.907 22.379 -23.207
C 243.952 27.816 -9.356
O 243.776 28.068 -10.475
O 244.128 27.564 -8.237
C 184.112 23.186 -0.303
O 185.253 23.355 -0.423
O 182.970 23.018 -0.183
C 139.338 26.657 -11.559
O 138.328 27.038 -11.985
O 140.348 26.277 -11.133
C 162.163 30.957 -25.999
O 162.836 30.355 -25.272
O 161.489 0.127 -26.726
C 158.936 7.823 -8.735
O 157.924 8.347 -8.954
O 159.948 7.300 -8.515
C 104.464 0.530 -3.218
O 103.406 1.005 -3.262
O 105.521 0.054 -3.173
C 93.393 2.888 -20.312
O 94.207 3.612 -20.710
O 92.579 2.163 -19.913
C 67.103 0.081 -5.665
O 66.803 1.055 -5.110
O 67.402 30.540 -6.221
C 80.253 6.725 -8.990
O 80.434 6.411 -7.888
O 80.072 7.038 -10.092
C 183.731 18.081 -6.767
O 184.107 18.423 -7.810
O 183.356 17.739 -5.724
C 160.306 25.611 -10.460
O 161.326 25.718 -11.003
O 159.287 25.505 -9.917
C 140.943 21.105 -27.959
O 141.008 20.424 -28.896
O 140.879 21.786 -27.022
C 181.587 6.677 -12.334
O 180.461 6.435 -12.194
O 182.713 6.919 -12.475
C 105.373 15.399 -4.141
O 105.733 14.321 -3.904
O 105.014 16.476 -4.377
C 73.769 6.820 -14.177
O 73.340 5.864 -14.674
O 74.198 7.777 -13.681
C 185.587 25.180 -29.183
O 184.981 24.214 -28.969
O 186.192 26.145 -29.397
C 106.054 4.863 -0.024
O 106.378 3.770 -0.238
O 105.730 5.956 -31.242
C 135.546 11.824 -30.008
O 134.991 12.765 -30.400
O 136.100 10.884 -29.617
C 225.099 14.964 -22.785
O 225.496 15.689 -23.599
O 224.703 14.238 -21.972
C 209.289 10.655 -4.057
O 209.281 11.038 -2.962
O 209.298 10.271 -5.151
C 143.123 21.375 -18.811
O 142.179 22.001 -19.062
O 144.067 20.749 -18.561
C 162.208 2.382 -20.256
O 162.011 2.147 -19.137
O 162.404 2.616 -21.375
C 157.189 23.547 -23.300
O 157.055 23.804 -22.177
O 157.323 23.289 -24.423
C 187.276 25.273 -19.266
O 187.474 24.195 -18.887
O 187.078 26.351 -19.646
C 94.920 13.328 -0.604
O 94.992 12.328 -31.452
O 94.849 14.327 -1.189
C 187.115 9.387 -3.290
O 186.157 8.791 -3.019
O 188.073 9.982 -3.561
C 49.828 21.950 -17.360
O 49.341 21.132 -16.698
O 50.316 22.767 -18.023
C 76.981 12.927 -7.723
O 76.942 13.330 -6.636
O 77.019 12.524 -8.810
C 155.576 28.525 -1.720
O 155.867 29.575 -2.120
O 155.285 27.476 -1.319
C 109.699 15.341 -15.783
O 109.466 14.361 -15.208
O 109.933 16.321 -16.358
C 188.899 3.728 -22.572
O 188.685 4.033 -23.670
O 189.113 3.424 -21.473
C 94.755 23.972 -12.152
O 93.611 24.084 -11.995
O 95.899 23.860 -12.310
C 185.854 27.538 -9.160
O 184.763 27.751 -8.829
O 186.946 27.325 -9.490
C 121.761 14.446 -21.255
O 121.233 14.727 -22.249
O 122.289 14.165 -20.261
C 67.095 3.139 -2.735
O 66.216 3.858 -2.969
O 67.974 2.419 -2.501
C 202.525 24.317 -31.064
O 202.136 23.849 -0.619
O 202.914 24.785 -30.077
C 181.442 1.694 -31.355
O 180.366 2.067 -31.134
O 182.518 1.322 -0.144
C 78.563 30.404 -11.695
O 77.618 31.042 -11.481
O 79.508 29.767 -11.908
C 188.345 19.001 -25.552
O 187.996 19.243 -24.472
O 188.693 18.759 -26.631
C 179.974 18.597 -26.683
O 179.424 18.419 -27.689
O 180.525 18.776 -25.678
C 107.916 3.138 -15.977
O 107.542 3.669 -15.016
O 108.291 2.607 -16.938
C 62.880 19.573 -7.309
O 62.675 20.431 -8.062
O 63.086 18.715 -6.556
C 124.970 21.067 -22.756
O 125.350 20.034 -22.389
O 124.591 22.100 -23.122
C 104.785 11.770 -5.953
O 105.664 11.066 -6.231
O 103.906 12.474 -5.676
C 65.132 7.654 -7.550
O 64.654 7.098 -8.448
O 65.610 8.210 -6.651
C 136.367 15.122 -28.640
O 137.397 14.605 -28.507
O 135.337 15.639 -28.773
C 186.574 9.908 -20.621
O 186.784 10.810 -19.922
O 186.363 9.006 -21.319
C 176.910 5.938 -20.477
O 177.706 5.235 -20.011
O 176.114 6.642 -20.943
C 90.342 23.371 -11.960
O 90.948 22.383 -11.924
O 89.735 24.359 -11.996
C 59.154 1.921 -16.527
O 58.217 2.600 -16.600
O 60.092 1.241 -16.455
C 111.793 9.053 -27.010
O 112.161 8.572 -26.020
O 111.426 9.535 -27.999
C 92.567 14.210 -14.488
O 93.398 14.483 -15.250
O 91.737 13.937 -13.726
C 87.237 25.501 -15.863
O 86.587 26.458 -15.943
O 87.887 24.543 -15.784
C 179.077 6.748 -29.454
O 178.379 5.836 -29.622
O 179.774 7.660 -29.285
C 162.855 7.987 -25.194
O 163.082 7.103 -25.911
O 162.628 8.870 -24.477
C 99.604 7.175 -12.921
O 100.661 6.894 -13.309
O 98.548 7.456 -12.534
C 168.318 25.595 -16.635
O 169.007 24.953 -17.313
O 167.629 26.236 -15.957
C 237.463 1.733 -0.868
O 237.455 1.585 -31.150
O 237.470 1.881 -2.018
C 72.471 11.982 -29.121
O 71.795 12.112 -30.055
O 73.147 11.852 -28.188
C 63.049 18.183 -25.609
O 63.506 19.242 -25.485
O 62.592 17.124 -25.733
C 181.490 14.902 -28.878
O 181.687 14.804 -30.017
O 181.292 15.001 -27.739
C 189.132 26.614 -12.790
O 188.183 27.241 -12.564
O 190.081 25.987 -13.017
C 133.962 28.329 -1.579
O 134.629 27.652 -2.244
O 133.295 29.007 -0.915
C 184.954 2.137 -11.836
O 186.107 2.101 -11.708
O 183.802 2.172 -11.964
C 183.746 12.168 -26.202
O 183.217 13.184 -26.387
O 184.275 11.153 -26.016
C 63.820 19.071 -11.410
O 64.434 19.971 -11.012
O 63.206 18.171 -11.808
C 80.371 15.396 -4.352
O 79.323 15.598 -4.807
O 81.419 15.195 -3.897
C 178.661 23.983 -22.850
O 177.838 24.387 -23.561
O 179.485 23.579 -22.140
C 184.856 7.423 -22.892
O 185.469 6.441 -22.817
O 184.243 8.405 -22.968
C 151.950 9.986 -28.508
O 150.829 10.012 -28.806
O 153.070 9.960 -28.211
C 172.889 26.382 -2.535
O 173.222 27.028 -1.632
O 172.556 25.735 -3.439
C 112.235 12.690 -13.038
O 112.229 11.972 -13.950
O 112.241 13.407 -12.127
C 69.063 23.175 -30.427
O 69.559 23.227 -0.042
O 68.568 23.123 -29.379
C 76.079 4.835 -11.850
O 75.033 5.021 -11.384
O 77.125 4.648 -12.315
C 136.008 22.200 -17.508
O 135.046 21.652 -17.852
O 136.971 22.749 -17.164
C 125.195 1.638 -25.212
O 124.984 0.502 -25.313
O 125.407 2.774 -25.111
C 148.394 1.492 -12.220
O 149.172 1.982 -12.927
O 147.616 1.002 -11.513
C 106.138 13.411 -13.305
O 105.612 13.915 -12.403
O 106.665 12.907 -14.207
C 181.922 24.714 -27.137
O 181.254 23.982 -27.741
O 182.590 25.445 -26.534
C 60.330 24.281 -14.838
O 60.197 24.146 -15.982
O 60.464 24.416 -13.694
C 152.024 11.559 -4.534
O 152.087 12.430 -3.771
O 151.961 10.687 -5.298
C 109.915 14.217 -0.882
O 108.845 13.825 -1.100
O 110.985 14.610 -0.665
C 67.414 29.248 -31.453
O 67.497 29.737 -1.069
O 67.331 28.759 -30.404
C 73.338 31.399 -1.693
O 72.455 30.893 -2.251
O 74.220 0.472 -1.136
C 62.857 12.764 -7.045
O 62.828 13.752 -6.437
O 62.886 11.776 -7.652
C 134.688 28.475 -11.225
O 134.948 28.841 -10.155
O 134.427 28.109 -12.294
C 174.952 7.837 -3.663
O 174.973 7.299 -4.690
O 174.931 8.375 -2.635
C 65.552 15.079 -23.291
O 64.402 14.928 -23.281
O 66.702 15.229 -23.301
C 168.108 17.935 -0.422
O 167.127 17.347 -0.613
O 169.089 18.524 -0.231
C 187.825 5.816 -6.050
O 188.041 6.952 -5.956
O 187.610 4.680 -6.144
C 122.156 8.761 -31.379
O 121.924 9.514 -0.798
O 122.388 8.008 -30.528
C 129.570 10.837 -12.075
O 129.472 9.787 -12.558
O 129.668 11.888 -11.593
C 152.754 25.901 -12.364
O 152.632 26.634 -11.474
O 152.876 25.168 -13.255
C 70.122 12.065 -1.565
O 69.148 12.597 -1.903
O 71.096 11.534 -1.226
C 134.565 2.860 -9.690
O 135.594 3.194 -10.108
O 133.535 2.527 -9.271
C 79.318 10.821 -17.707
O 79.586 10.016 -18.498
O 79.050 11.625 -16.915
C 151.565 12.533 -12.700
O 151.846 12.315 -11.596
O 151.284 12.752 -13.804
C 64.713 12.538 -17.476
O 65.344 12.963 -18.351
O 64.081 12.114 -16.600
C 72.475 14.604 -17.153
O 73.504 15.137 -17.084
O 71.448 14.071 -17.222
C 182.878 13.082 -10.983
O 183.697 12.671 -11.695
O 182.059 13.493 -10.272
C 135.691 30.680 -7.332
O 134.714 30.742 -7.953
O 136.669 30.619 -6.711
C 75.626 2.845 -7.824
O 76.364 3.069 -8.690
O 74.888 2.620 -6.958
C 73.410 10.720 -16.747
O 73.359 9.797 -17.446
O 73.462 11.644 -16.047
C 102.893 8.955 -10.576
O 103.406 8.687 -9.571
O 102.380 9.223 -11.582
C 59.928 21.393 -20.253
O 58.882 21.067 -19.872
O 60.975 21.719 -20.633
C 78.817 21.719 -11.618
O 79.082 20.815 -10.941
O 78.552 22.623 -12.295
C 102.605 2.482 -30.173
O 101.714 2.171 -29.499
O 103.496 2.794 -30.848
C 72.397 2.808 -30.309
O 73.022 3.326 -31.137
O 71.771 2.289 -29.481
C 65.122 12.539 -12.226
O 64.510 11.569 -12.403
O 65.733 13.508 -12.048
C 150.786 21.961 -4.717
O 151.272 21.116 -5.345
O 150.300 22.807 -4.089
C 62.708 18.825 -21.996
O 62.212 17.849 -22.380
O 63.204 19.800 -21.612
C 79.171 31.422 -14.758
O 78.211 30.771 -14.736
O 80.131 0.641 -14.780
C 183.091 20.562 -23.882
O 183.520 21.226 -24.731
O 182.663 19.898 -23.033
C 183.570 15.978 -23.694
O 183.710 16.048 -22.545
O 183.430 15.908 -24.843
C 83.562 24.272 -7.890
O 82.876 24.102 -6.971
O 84.248 24.443 -8.810
C 113.200 4.952 -11.260
O 113.701 5.108 -12.295
O 112.700 4.795 -10.225
C 207.315 4.060 -20.101
O 206.714 3.355 -19.403
O 207.917 4.765 -20.798
C 76.083 2.043 -15.527
O 75.440 1.109 -15.769
O 76.726 2.977 -15.284
C 223.443 16.564 -31.031
O 222.939 17.297 -30.287
O 223.947 15.831 -0.343
C 91.426 21.299 -31.326
O 91.849 21.742 -30.340
O 91.003 20.856 -0.878
3933
Lattice="31.432 0 0 0 31.432 0 0 0 192.052" Properties=species:S:1:pos:R:3 timestep=36035000
O 227.655 21.635 -13.333
O 235.945 16.869 -29.876
O 72.251 3.546 -17.577
O 189.477 18.867 -15.156
O 61.356 16.897 -21.216
O 56.830 11.668 -20.855
O 214.096 14.736 -4.909
O 81.615 22.281 -5.788
O 217.824 0.769 -5.624
O 188.864 25.340 -21.038
O 227.566 9.920 -19.865
O 189.867 7.736 -8.264
O 217.763 14.140 -21.465
O 186.812 17.445 -9.736
O 74.597 18.333 -18.837
O 68.104 19.357 -21.334
O 61.442 6.655 -0.172
O 68.240 30.998 -10.979
O 207.113 18.604 -19.375
O 56.354 16.310 -7.437
O 211.422 24.176 -19.442
O 197.620 0.791 -5.311
O 229.995 8.772 -24.678
O 187.911 6.985 -27.082
O 202.423 26.198 -17.838
O 190.603 13.167 -18.570
O 85.893 30.650 -16.828
O 188.129 8.234 -16.384
O 63.226 29.080 -26.984
O 81.110 26.221 -30.894
O 233.229 16.085 -10.967
O 206.999 23.878 -12.493
O 217.325 10.592 -5.366
O 57.987 27.752 -4.531
O 234.362 12.755 -3.836
O 208.496 8.832 -1.639
O 192.271 3.371 -24.841
O 211.184 12.532 -9.563
O 75.181 3.063 -14.402
O 202.358 22.993 -15.590
O 69.858 7.166 -18.176
O 53.096 1.335 -9.333
O 236.851 16.230 -3.235
O 214.192 22.020 -12.172
O 69.030 26.297 -14.436
O 221.406 2.633 -10.018
O 78.712 4.040 -6.273
O 205.808 4.038 -26.398
O 84.743 6.801 -21.586
O 46.658 16.766 -28.626
O 217.249 17.867 -27.681
O 233.277 20.469 -26.348
O 193.088 31.053 -27.228
O 232.808 26.971 -1.170
O 197.896 7.391 -5.703
O 76.852 0.072 -20.346
O 210.750 26.394 -9.345
O 72.869 28.416 -26.755
O 209.192 30.320 -17.384
O 199.055 12.993 -2.449
O 227.303 24.691 -25.307
O 50.180 12.119 -12.791
O 82.053 13.653 -12.220
O 223.018 3.368 -4.505
O 231.349 27.018 -23.686
O 203.476 13.700 -17.844
O 210.704 15.232 -8.376
O 203.210 14.723 -10.189
O 80.711 16.695 -23.412
O 213.941 14.572 -27.721
O 59.738 26.170 -8.788
O 182.731 6.442 -26.837
O 230.358 20.538 -19.693
O 202.380 22.744 -24.312
O 47.934 23.824 -24.873
O 68.361 8.037 -23.465
O 76.844 11.207 -28.699
O 197.530 28.086 -19.331
O 72.534 15.803 -12.874
O 62.969 30.869 -1.874
O 64.020 4.898 -0.464
O 204.756 23.763 -24.821
O 50.581 15.840 -14.197
O 228.363 18.810 -0.531
O 233.711 15.191 -6.358
O 190.552 12.767 -31.153
O 223.546 9.568 -22.255
O 48.333 7.403 -30.214
O 79.766 28.434 -26.018
O 66.056 24.595 -17.239
O 82.203 5.322 -4.569
O 196.971 15.005 -28.161
O 75.429 25.974 -26.930
O 229.861 8.745 -12.396
O 196.966 31.069 -23.654
O 205.406 3.082 -9.621
O 214.156 3.330 -24.141
O 83.356 3.138 -5.763
O 48.221 26.559 -22.802
O 192.377 18.808 -11.628
O 83.162 20.734 -9.007
O 84.241 6.980 -8.088
O 196.186 19.858 -27.008
O 233.973 9.479 -1.953
O 192.922 2.098 -4.082
O 81.246 27.782 -10.136
O 200.180 22.098 -12.464
O 191.835 13.359 -21.622
O 233.174 20.167 -20.118
O 62.455 9.405 -23.937
O 76.826 24.247 -2.838
O 58.407 21.857 -28.653
O 71.665 1.133 -21.277
O 230.072 31.068 -6.224
O 68.020 7.901 -27.631
O 46.373 31.040 -29.316
O 198.269 21.884 -26.791
O 220.899 1.398 -12.354
O 212.503 29.732 -23.457
O 64.114 8.230 -13.348
O 55.565 2.553 -28.039
O 211.823 11.270 -28.798
O 47.474 27.767 -15.082
O 191.704 20.118 -18.394
O 49.982 9.704 -24.116
O 72.318 18.459 -7.574
O 235.801 26.637 -14.823
O 214.760 9.236 -7.041
O 201.988 17.385 -15.233
O 188.967 19.069 -5.432
O 199.755 4.497 -12.249
O 215.825 13.266 -29.191
O 61.244 2.663 -16.516
O 54.538 1.425 -14.721
O 198.171 19.922 -19.552
O 229.717 4.628 -21.695
O 230.722 23.262 -12.812
O 226.944 27.667 -12.149
O 65.781 18.913 -8.376
O 206.011 28.762 -14.962
O 48.355 14.666 -15.886
O 59.272 25.069 -30.609
O 70.955 19.468 -23.941
O 60.518 14.581 -5.157
O 48.067 19.543 -15.380
O 58.115 0.577 -24.302
O 193.900 2.124 -0.164
O 81.510 0.747 -12.195
O 220.714 6.652 -11.321
O 234.750 13.554 -22.307
O 55.523 6.402 -15.043
O 220.784 12.311 -22.381
O 212.578 20.078 -20.147
O 49.995 2.841 -14.959
O 86.028 5.483 -2.332
O 190.916 18.547 -27.419
O 83.783 7.012 -13.956
O 75.006 2.986 -8.862
O 48.372 5.471 -16.093
O 227.583 3.673 -12.815
O 73.069 8.171 -13.314
O 237.288 1.964 -9.415
O 227.203 3.420 -21.940
O 220.875 15.268 -25.797
O 200.902 15.671 -30.889
O 65.743 1.029 -7.973
O 59.221 4.037 -14.476
O 218.157 28.226 -22.037
O 232.460 11.398 -19.742
O 76.671 24.620 -17.886
O 231.491 20.241 -14.555
O 49.666 23.103 -29.740
O 223.944 1.962 -31.079
O 199.131 4.071 -21.683
O 64.764 9.135 -1.563
O 204.437 31.037 -28.883
O 69.411 22.814 -19.622
O 188.436 21.551 -16.096
O 83.596 23.463 -20.943
O 55.897 24.321 -27.898
O 59.505 22.095 -20.388
O 230.125 19.774 -10.322
O 224.732 11.980 -22.132
O 193.969 0.846 -11.825
O 231.003 8.493 -2.534
O 236.668 11.242 -2.216
O 50.481 8.666 -17.379
O 223.343 19.824 -29.021
O 212.777 28.955 -17.548
O 230.826 7.718 -6.737
O 58.459 14.712 -19.114
O 197.484 24.354 -5.070
O 74.664 22.442 -2.804
O 82.860 15.247 -17.111
O 51.931 21.340 -1.859
O 59.394 28.120 -26.156
O 226.586 29.669 -17.159
O 208.223 5.495 -29.304
O 68.589 5.782 -5.472
O 85.277 8.629 -15.792
O 205.321 22.717 -20.129
O 226.785 26.626 -30.906
O 78.433 13.588 -5.785
O 207.848 14.377 -3.330
O 190.242 20.140 -12.769
O 209.768 0.799 -1.093
O 60.214 2.034 -26.774
O 208.518 20.474 -23.143
O 215.531 12.878 -12.869
O 228.698 29.811 -26.896
O 186.983 24.374 -29.417
O 204.365 27.987 -12.883
O 63.105 9.807 -9.594
O 79.930 24.132 -0.953
O 80.671 2.904 -1.267
O 197.658 17.791 -27.505
O 219.533 4.971 -22.072
O 215.992 30.942 -25.101
O 203.956 2.643 -20.650
O 226.404 18.439 -8.281
O 217.199 26.342 -7.417
O 57.671 5.648 -8.230
O 79.596 28.040 -23.357
O 236.862 29.061 -22.290
O 46.685 0.203 -20.067
O 194.086 18.044 -0.832
O 46.265 5.992 -13.845
O 235.591 10.038 -31.352
O 233.369 29.069 -20.292
O 199.139 9.786 -4.241
O 232.829 2.633 -26.847
O 84.714 30.195 -8.979
O 51.146 10.759 -8.851
O 226.911 7.194 -5.547
O 198.112 29.244 -5.078
O 66.021 5.440 -30.281
O 193.322 18.842 -25.856
O 215.087 22.628 -18.292
O 71.216 27.680 -12.353
O 60.034 30.966 -1.936
O 60.923 8.331 -13.966
O 52.166 17.935 -27.562
O 236.101 29.235 -30.078
O 57.467 20.264 -31.326
O 50.693 26.572 -25.190
O 67.320 29.438 -5.884
O 213.021 13.742 -17.451
O 196.651 5.618 -3.760
O 224.470 29.271 -1.873
O 188.955 5.125 -20.777
O 234.800 2.755 -3.039
O 230.255 15.864 -16.619
O 197.047 29.687 -28.206
O 206.462 29.393 -29.982
O 202.600 8.087 -29.466
O 215.807 21.887 -29.663
O 57.506 19.514 -10.826
O 183.737 22.353 -23.069
O 188.004 26.381 -18.291
O 201.341 17.033 -27.028
O 189.047 21.243 -3.930
O 54.997 19.397 -23.247
O 205.939 8.345 -26.241
O 49.126 4.320 -20.599
O 218.223 30.529 -14.064
O 64.660 8.428 -22.359
O 55.184 2.928 -4.440
O 46.684 18.161 -2.813
O 64.974 31.090 -13.705
O 235.008 9.563 -6.716
O 69.304 3.326 -9.969
O 72.138 13.881 -3.946
O 213.375 1.078 -13.660
O 74.096 19.604 -1.357
O 68.779 6.876 -29.973
O 208.915 11.583 -1.050
O 57.982 17.104 -9.630
O 212.529 10.018 -0.690
O 214.197 14.929 -0.822
O 228.444 16.651 -8.262
O 222.467 28.850 -14.086
O 188.605 19.928 -0.410
O 81.924 4.596 -14.218
O 208.724 17.765 -23.425
O 219.815 23.161 -5.665
O 211.154 26.008 -26.403
O 232.696 8.417 -24.943
O 235.381 20.963 -9.248
O 219.066 6.388 -31.185
O 52.075 12.481 -11.003
O 72.663 14.547 -24.461
O 186.818 14.632 -19.680
O 74.615 1.449 -12.344
O 208.236 23.788 -9.848
O 204.013 19.015 -24.556
O 195.272 28.906 -5.368
O 70.617 6.161 -11.543
O 55.200 16.575 -28.474
O 86.873 14.054 -8.709
O 222.103 22.035 -19.096
O 50.227 3.414 -23.053
O 215.786 0.729 -20.470
O 232.907 26.608 -21.354
O 55.930 8.900 -26.383
O 67.086 19.188 -24.415
O 57.770 16.518 -14.206
O 235.220 16.061 -0.897
O 72.069 30.811 -0.317
O 60.859 12.452 -9.858
O 218.872 9.777 -1.348
O 208.041 5.546 -19.956
O 50.195 7.488 -14.953
O 190.546 25.760 -29.464
O 46.508 25.281 -16.196
O 217.379 27.462 -28.014
O 79.375 1.944 -11.740
O 53.569 13.889 -19.688
O 211.408 3.714 -10.752
O 224.992 0.398 -11.685
O 212.604 6.309 -30.892
O 47.456 9.812 -7.941
O 192.690 14.379 -2.973
O 223.546 7.273 -25.318
O 206.181 30.226 -25.981
O 212.670 17.236 -28.387
O 187.610 20.541 -20.068
O 68.716 30.619 -22.349
O 214.139 9.028 -15.195
O 210.496 5.049 -26.617
O 50.227 18.393 -1.202
O 77.532 22.263 -21.955
O 207.014 2.192 -17.284
O 76.774 1.986 -28.579
O 63.660 6.680 -2.801
O 235.167 13.638 -30.963
O 189.701 13.682 -2.164
O 87.725 12.046 -10.557
O 75.336 17.700 -21.440
O 52.459 1.530 -30.859
O 69.385 21.620 -6.766
O 218.029 4.146 -14.417
O 82.662 16.006 -0.729
O 62.291 28.897 -29.733
O 217.710 13.493 -26.161
O 197.394 3.808 -7.585
O 68.632 17.933 -11.465
O 218.281 20.830 -0.824
O 59.948 22.630 -24.780
O 54.803 24.706 -14.239
O 56.839 20.116 -15.210
O 85.156 3.377 -24.374
O 86.131 0.519 -5.497
O 231.695 0.612 -1.268
O 192.459 22.914 -21.115
O 217.393 10.351 -15.517
O 221.038 15.543 -12.907
O 191.051 12.798 -12.021
O 73.659 26.068 -22.597
O 200.384 27.522 -21.775
O 78.397 15.237 -22.767
O 187.390 10.361 -14.503
O 62.719 14.618 -9.393
O 217.112 1.984 -10.246
O 75.602 31.318 -30.217
O 74.650 20.235 -13.422
O 221.113 26.342 -29.136
O 197.589 13.075 -21.023
O 234.916 1.429 -12.958
O 78.494 25.633 -8.779
O 218.967 11.907 -30.450
O 49.538 18.777 -12.344
O 80.767 2.454 -17.541
O 196.071 19.637 -2.543
O 68.867 29.765 -18.733
O 200.074 27.505 -25.418
O 231.144 12.445 -15.308
O 207.627 29.400 -3.033
O 69.225 7.384 -8.100
O 217.247 25.307 -18.961
O 81.265 19.489 -7.543
O 47.401 10.923 -24.928
O 46.082 23.793 -10.284
O 189.699 13.749 -28.410
O 46.133 12.727 -4.324
O 74.270 1.476 -0.717
O 62.701 13.699 -3.409
O 73.917 10.472 -1.876
O 187.639 0.693 -19.269
O 200.773 24.986 -19.839
O 73.964 0.668 -7.802
O 222.414 18.502 -8.063
O 235.945 22.408 -19.321
O 79.278 4.177 -13.250
O 234.840 12.112 -7.632
O 232.989 13.239 -25.852
O 235.164 1.835 -17.833
O 50.459 19.061 -25.556
O 48.594 21.840 -12.781
O 47.005 4.738 -0.911
O 190.549 15.839 -21.409
O 69.260 30.367 -16.032
O 61.803 3.093 -22.598
O 208.340 8.968 -8.732
O 211.448 19.134 -26.942
O 204.044 28.402 -17.029
O 199.680 0.711 -10.928
O 187.412 10.669 -8.275
O 53.633 27.819 -30.186
O 62.678 20.524 -23.334
O 69.064 14.639 -12.952
O 46.513 6.590 -18.077
O 234.568 16.376 -25.490
O 189.887 9.363 -23.802
O 197.608 3.351 -27.118
O 220.003 17.205 -14.933
O 213.530 22.936 -23.788
O 79.329 0.241 -22.172
O 221.960 2.275 -6.831
O 234.460 6.713 -13.000
O 61.190 8.807 -2.379
O 219.971 24.284 -8.663
O 216.515 7.466 -25.435
O 192.978 7.417 -17.814
O 71.047 19.950 -16.482
O 46.007 11.043 -10.871
O 76.550 17.801 -29.302
O 72.941 7.782 -7.797
O 227.516 1.110 -13.839
O 67.595 23.203 -2.740
O 190.434 27.928 -4.684
O 76.782 30.038 -9.928
O 67.247 15.287 -28.860
O 77.655 0.767 -13.656
O 56.624 28.187 -21.759
O 230.612 31.249 -25.614
O 190.402 8.008 -18.333
O 66.713 9.773 -15.071
O 235.498 4.245 -6.568
O 200.017 13.900 -12.826
O 66.358 19.739 -10.995
O 235.456 26.251 -22.426
O 221.013 23.314 -28.496
O 230.530 18.861 -22.537
O 205.378 7.856 -1.998
O 218.002 7.370 -2.261
O 60.535 12.921 -29.780
O 201.633 20.230 -24.847
O 61.474 24.547 -23.512
O 73.578 25.543 -30.418
O 194.378 22.489 -13.077
O 68.178 11.772 -10.841
O 66.271 21.915 -16.966
O 72.402 7.670 -26.613
O 190.410 25.471 -14.964
O 46.732 29.643 -3.985
O 219.045 18.566 -11.368
O 191.861 25.780 -9.979
O 47.308 6.340 -27.867
O 216.279 27.683 -17.358
O 77.513 31.081 -16.710
O 59.384 15.328 -16.228
O 228.726 30.055 -29.664
O 223.484 4.525 -8.776
O 198.515 5.322 -9.600
O 48.275 12.872 -27.399
O 64.927 27.290 -2.571
O 221.027 22.020 -25.927
O 80.893 0.069 -1.549
O 69.360 11.846 -24.646
O 191.682 15.577 -15.703
O 234.184 29.787 -0.670
O 207.742 21.724 -15.124
O 74.487 4.709 -3.094
O 66.100 6.676 -24.362
O 223.613 26.508 -17.221
O 195.453 9.425 -8.716
O 67.882 4.395 -21.163
O 218.713 26.945 -30.532
O 197.749 25.934 -21.787
O 227.121 14.917 -14.655
O 47.049 29.916 -13.425
O 194.119 8.485 -15.410
O 65.678 12.621 -31.133
O 75.945 24.898 -23.353
O 75.117 11.495 -30.660
O 54.447 20.641 -0.827
O 48.277 24.728 -8.768
O 233.637 18.137 -0.245
O 237.378 3.100 -2.160
O 227.431 19.020 -14.277
O 73.958 16.244 -3.729
O 222.724 12.475 -20.099
O 55.667 23.995 -3.312
O 230.956 28.481 -11.930
O 72.706 18.460 -14.562
O 49.453 13.726 -0.381
O 55.508 27.473 -15.464
O 198.834 30.320 -19.699
O 233.617 6.061 -23.588
O 229.640 19.623 -5.340
O 198.919 30.913 -7.443
O 234.614 17.360 -8.894
O 70.436 4.340 -24.613
O 194.685 14.493 -26.616
O 226.050 6.568 -24.680
O 66.607 13.793 -8.348
O 235.770 5.403 -9.068
O 79.110 11.736 -13.672
O 70.855 8.316 -14.993
O 49.008 26.698 -17.128
O 68.446 20.575 -15.934
O 216.325 30.487 -16.232
O 235.599 3.007 -25.861
O 78.201 10.534 -9.491
O 230.588 27.012 -16.531
O 216.595 0.318 -2.891
O 84.082 28.556 -2.261
O 59.141 25.484 -1.914
O 77.565 0.674 -7.919
O 232.596 7.137 -0.487
O 54.094 16.933 -24.496
O 217.241 26.016 -13.062
O 206.091 18.177 -26.712
O 224.835 22.777 -21.268
O 59.675 10.630 -30.958
O 189.294 22.642 -26.331
O 210.968 30.124 -5.759
O 45.917 0.605 -23.054
O 223.997 4.342 -29.690
O 216.632 17.922 -5.295
O 206.871 12.648 -23.032
O 85.476 5.258 -10.198
O 70.035 9.697 -20.382
O 233.014 2.549 -31.369
O 78.907 29.521 -30.328
O 217.217 15.128 -24.067
O 51.587 24.546 -23.202
O 77.932 31.107 -26.063
O 56.244 0.219 -22.342
O 226.837 31.135 -7.220
O 207.734 2.373 -6.745
O 51.121 21.050 -30.528
O 57.104 15.936 -23.687
O 198.558 7.207 -26.529
O 73.150 25.756 -19.970
O 210.612 6.730 -29.204
O 54.596 16.038 -15.253
O 79.094 2.688 -8.756
O 204.547 25.129 -12.898
O 222.363 17.567 -3.620
O 228.885 29.139 -8.643
O 189.103 29.738 -18.644
O 73.723 14.495 -10.272
O 51.322 24.556 -16.786
O 72.200 6.208 -17.412
O 219.451 30.633 -28.539
O 76.445 24.772 -30.118
O 47.700 2.544 -18.863
O 76.729 21.454 -17.685
O 74.957 6.808 -26.262
O 217.484 3.462 -6.144
O 217.466 16.909 -7.637
O 185.169 2.589 -29.529
O 71.981 30.601 -28.270
O 225.438 14.970 -9.275
O 189.418 4.067 -16.013
O 47.498 2.031 -25.866
O 205.494 4.800 -21.323
O 197.970 25.270 -14.517
O 232.520 1.088 -5.960
O 76.955 6.797 -30.420
O 226.568 22.041 -25.967
O 207.414 31.128 -14.603
O 84.073 28.491 -11.028
O 74.066 30.891 -10.296
O 224.095 19.965 -6.223
O 225.557 23.407 -13.153
O 225.317 20.047 -10.442
O 53.221 23.499 -24.973
O 225.402 31.192 -21.262
O 221.747 13.102 -13.837
O 73.683 27.983 -14.094
O 184.779 6.212 -2.387
O 234.642 25.142 -12.931
O 202.284 0.634 -30.657
O 62.770 0.371 -27.003
O 51.391 19.160 -3.772
O 234.490 29.666 -23.259
O 202.946 4.871 -15.727
O 59.359 24.233 -11.220
O 79.176 19.915 -17.073
O 77.313 22.397 -31.245
O 212.945 21.556 -14.696
O 74.544 7.491 -23.420
O 195.405 5.998 -0.970
O 50.178 16.176 -5.400
O 52.351 16.797 -0.812
O 219.217 9.603 -17.623
O 196.538 11.545 -24.623
O 84.300 18.988 -18.272
O 210.262 27.049 -30.878
O 74.570 5.155 -0.231
O 59.777 16.758 -23.604
O 59.456 21.614 -10.217
O 212.935 16.325 -2.826
O 210.302 13.759 -4.590
O 80.831 17.932 -11.367
O 199.575 1.499 -27.562
O 189.284 25.341 -8.717
O 188.536 14.194 -24.313
O 81.705 10.229 -13.223
O 49.914 0.480 -16.498
O 209.555 14.980 -19.043
O 224.364 4.336 -14.653
O 80.767 28.927 -0.807
O 46.175 0.456 -0.907
O 81.000 13.430 -24.864
O 76.946 3.566 -2.412
O 55.631 18.374 -17.078
O 219.011 3.048 -24.222
O 81.716 21.393 -11.360
O 234.447 17.850 -12.821
O 204.783 29.918 -3.321
O 228.761 18.452 -20.709
O 57.490 21.921 -17.148
O 187.353 18.634 -22.266
O 219.732 28.470 -24.303
O 52.882 10.998 -6.771
O 72.301 9.676 -22.798
O 70.216 26.766 -24.272
O 192.049 27.115 -6.842
O 185.440 28.773 -30.816
O 204.714 20.039 -5.479
O 81.719 17.017 -8.815
O 193.411 14.612 -0.414
O 46.530 14.572 -26.430
O 232.825 5.472 -15.116
O 49.045 0.284 -27.572
O 203.291 4.464 -12.987
O 68.622 7.210 -20.642
O 192.440 28.850 -22.815
O 58.255 9.196 -27.520
O 237.250 24.689 -21.183
O 73.234 8.438 -18.685
O 50.979 21.863 -6.441
O 230.686 24.916 -10.426
O 190.124 10.837 -19.747
O 76.226 7.034 -6.089
O 66.246 11.162 -2.574
O 57.938 15.691 -5.398
O 236.539 20.957 -0.951
O 211.974 0.553 -21.955
O 53.609 7.144 -31.076
O 192.395 2.049 -14.388
O 208.776 26.076 -17.849
O 65.624 15.423 -23.966
O 196.216 12.880 -12.433
O 83.383 15.353 -22.827
O 76.599 28.211 -17.838
O 190.663 0.800 -30.086
O 72.946 5.039 -29.404
O 201.893 23.644 -3.828
O 235.253 10.945 -26.887
O 227.549 26.909 -2.140
O 58.592 1.246 -13.627
O 89.436 4.892 -2.878
O 231.420 16.608 -2.846
O 205.230 8.844 -29.154
O 199.635 29.514 -15.671
O 62.987 14.773 -22.038
O 56.220 22.517 -8.809
O 207.105 2.634 -22.525
O 207.616 12.863 -16.527
O 223.462 30.609 -3.897
O 225.060 22.536 -7.739
O 228.878 12.456 -10.110
O 222.109 15.939 -6.022
O 229.369 20.939 -2.794
O 55.383 27.719 -11.344
O 223.357 2.200 -20.695
O 70.420 25.986 -30.245
O 231.209 10.770 -0.097
O 81.958 8.687 -22.697
O 54.101 18.766 -20.777
O 212.489 16.734 -14.155
O 59.185 4.332 -0.448
O 190.078 8.632 -26.543
O 233.823 9.600 -13.249
O 200.799 0.578 -22.609
O 202.112 4.512 -22.117
O 215.723 9.411 -0.641
O 186.492 3.617 -2.059
O 234.657 2.331 -9.000
O 83.464 23.181 -30.822
O 230.300 12.460 -3.655
O 200.606 13.217 -24.948
O 80.256 12.986 -10.367
O 47.852 17.077 -25.739
O 212.773 20.390 -24.375
O 188.654 10.661 -5.667
O 214.797 19.252 -15.101
O 209.278 21.328 -6.876
O 50.349 0.190 -0.799
O 192.618 30.330 -30.999
O 218.408 22.872 -25.868
O 189.196 17.390 -11.016
O 54.408 22.555 -20.457
O 57.139 13.843 -13.445
O 59.317 5.439 -18.257
O 64.318 23.127 -14.874
O 82.375 27.671 -26.831
O 233.503 23.165 -29.799
O 74.790 11.960 -6.272
O 67.157 17.719 -1.669
O 213.327 8.940 -23.482
O 234.358 23.316 -6.303
O 226.085 18.919 -4.767
O 200.821 2.690 -1.472
O 53.521 7.048 -26.756
O 59.113 3.556 -4.612
O 46.962 29.583 -24.030
O 186.195 25.520 -24.301
O 85.381 1.311 -8.146
O 47.323 1.402 -4.430
O 237.186 2.005 -28.449
O 72.654 15.310 -27.214
O 227.760 16.690 -4.882
O 68.074 22.173 -26.541
O 210.736 24.069 -10.905
O 228.403 25.402 -5.855
O 67.832 10.627 -30.624
O 190.766 3.233 -10.976
O 53.050 25.556 -9.054
O 45.536 0.564 -11.839
O 63.788 27.732 -23.326
O 186.990 18.880 -29.269
O 218.813 13.888 -17.215
O 198.355 13.288 -5.066
O 62.213 25.943 -19.459
O 203.298 0.600 -23.728
O 54.338 18.369 -7.108
O 84.339 10.250 -17.732
O 187.218 10.855 -20.577
O 51.739 0.113 -27.090
O 230.732 11.300 -11.793
O 225.051 28.280 -15.096
O 213.879 20.270 -17.656
O 227.293 0.824 -9.922
O 216.502 13.874 -15.345
O 58.711 19.244 -28.978
O 54.259 9.181 -12.527
O 207.226 1.154 -27.064
O 222.710 20.830 -21.511
O 199.929 18.083 -16.646
O 220.311 0.088 -6.256
O 83.567 15.648 -12.777
O 76.945 27.026 -3.050
O 194.994 23.754 -7.329
O 227.789 13.976 -26.470
O 195.091 6.526 -25.795
O 213.296 0.586 -30.923
O 70.363 15.504 -2.316
O 225.132 29.727 -9.494
O 212.531 10.801 -18.304
O 204.607 16.063 -20.496
O 71.310 17.746 -28.151
O 200.609 24.645 -25.228
O 59.021 15.376 -29.559
O 220.934 9.026 -30.336
O 228.145 5.862 -2.477
O 57.314 12.511 -5.251
O 224.402 16.628 -7.383
O 221.483 20.057 -3.844
O 69.226 15.017 -10.375
O 219.576 11.540 -13.738
O 58.850 3.278 -23.896
O 45.804 25.399 -26.318
O 76.114 28.318 -20.522
O 46.124 30.922 -16.206
O 67.740 20.867 -31.033
O 210.127 28.146 -18.534
O 74.596 23.317 -26.340
O 69.632 0.282 -24.547
O 191.420 3.438 -31.175
O 63.285 25.348 -30.269
O 189.546 22.793 -7.195
O 50.475 27.900 -10.782
O 66.088 6.198 -19.483
O 229.719 1.055 -30.697
O 212.750 21.799 -5.134
O 227.854 15.848 -11.041
O 195.543 8.623 -24.102
O 53.611 4.601 -11.403
O 229.076 29.422 -15.403
O 205.358 17.492 -2.668
O 76.702 19.316 -23.002
O 191.470 5.426 -9.239
O 76.735 15.140 -4.404
O 81.773 11.180 -1.821
O 203.571 0.341 -13.333
O 230.528 3.325 -15.514
O 210.911 8.719 -10.550
O 226.747 28.570 -3.989
O 193.796 3.934 -15.626
O 87.299 3.212 -9.044
O 46.736 3.914 -10.619
O 226.028 6.046 -7.764
O 70.934 6.277 -3.508
O 230.241 5.877 -24.702
O 194.693 3.832 -3.026
O 194.125 20.633 -10.882
O 79.873 23.459 -11.180
O 78.635 11.061 -19.337
O 66.042 22.992 -4.858
O 82.840 5.718 -19.963
O 205.803 25.160 -27.810
O 61.284 9.618 -16.947
O 70.545 22.068 -27.677
O 226.297 2.188 -1.176
O 201.196 3.019 -5.928
O 50.977 29.288 -21.417
O 230.089 8.483 -30.921
O 65.739 9.421 -27.536
O 217.303 29.633 -29.875
O 56.025 13.341 -18.865
O 230.757 30.396 -20.180
O 82.352 22.915 -2.398
O 49.852 10.070 -28.010
O 84.880 31.271 -23.145
O 193.510 12.025 -4.365
O 198.209 2.626 -0.196
O 55.313 8.942 -29.096
O 199.176 18.406 -1.862
O 70.085 22.142 -3.616
O 83.031 3.651 -2.496
O 198.932 9.169 -20.797
O 231.779 12.989 -21.993
O 60.517 1.827 -20.192
O 203.642 21.454 -27.639
O 59.428 24.589 -14.015
O 66.778 20.618 -28.407
O 229.607 3.938 -18.960
O 223.612 11.310 -25.966
O 201.157 8.414 -11.402
O 236.001 8.346 -19.466
O 50.565 7.225 -0.376
O 201.974 30.332 -17.210
O 197.786 26.249 -8.387
O 235.761 6.834 -17.232
O 217.025 17.268 -12.627
O 200.761 15.561 -23.508
O 62.832 26.251 -25.445
O 48.653 24.027 -2.615
O 199.573 11.576 -21.997
O 221.198 2.909 -19.092
O 67.106 0.597 -26.429
O 230.343 11.514 -27.235
O 56.136 10.333 -2.118
O 64.448 13.067 -13.340
O 232.067 22.345 -7.999
O 227.250 15.365 -23.773
O 201.796 14.552 -28.526
O 47.980 29.286 -26.640
O 192.362 10.354 -21.454
O 187.415 12.988 -11.509
O 220.998 26.909 -10.961
O 69.394 25.427 -3.857
O 67.313 16.800 -7.832
O 224.091 25.448 -28.821
O 63.895 23.430 -28.082
O 225.240 2.525 -8.594
O 206.881 25.415 -19.887
O 59.544 4.505 -26.410
O 188.189 28.248 -2.397
O 219.797 23.143 -20.867
O 208.456 30.520 -24.475
O 49.434 22.880 -22.883
O 197.160 5.079 -24.672
O 60.125 20.684 -22.992
O 202.452 14.786 -6.099
O 50.213 28.443 -7.706
O 70.246 22.812 -17.055
O 72.504 21.524 -11.415
O 221.064 4.894 -7.674
O 52.302 14.133 -8.978
O 224.596 8.152 -4.489
O 199.174 6.910 -23.540
O 193.112 8.084 -5.663
O 74.964 15.573 -28.993
O 235.568 9.800 -9.522
O 199.384 6.704 -31.322
O 193.507 30.009 -15.542
O 61.017 18.632 -27.637
O 59.556 20.520 -18.051
O 65.246 8.089 -9.758
O 218.105 17.732 -24.723
O 211.287 4.759 -5.064
O 65.529 12.693 -24.047
O 45.609 8.966 -14.829
O 55.545 13.347 -15.708
O 84.003 10.719 -21.547
O 64.211 19.888 -15.074
O 69.851 20.281 -10.625
O 201.592 9.052 -3.509
O 74.671 21.588 -15.665
O 220.595 6.065 -3.271
O 217.894 27.030 -2.737
O 188.565 6.619 -1.735
O 189.546 17.081 -3.858
O 47.909 27.595 -11.483
O 213.236 1.884 -9.596
O 84.880 1.876 -3.762
O 60.813 16.446 -10.533
O 47.817 29.733 -1.386
O 67.925 0.679 -5.502
O 197.799 17.052 -9.766
O 186.305 3.295 -20.071
O 56.699 26.350 -2.838
O 225.044 14.953 -1.931
O 63.576 10.357 -29.042
O 199.541 5.656 -16.494
O 52.424 3.130 -27.697
O 72.492 4.709 -12.906
O 52.978 27.513 -23.651
O 219.527 17.902 -22.308
O 47.009 22.261 -30.126
O 210.368 9.895 -19.785
O 46.316 21.972 -17.352
O 227.430 0.466 -25.024
O 228.462 24.476 -28.491
O 187.952 2.013 -8.281
O 81.686 15.058 -29.496
O 68.055 27.269 -7.470
O 227.597 29.494 -23.346
O 200.190 26.519 -29.933
O 56.528 6.345 -29.372
O 201.977 2.389 -26.428
O 191.224 23.769 -2.434
O 50.792 6.902 -6.335
O 236.524 13.572 -27.703
O 57.472 20.090 -3.339
O 66.953 28.336 -17.468
O 62.129 20.932 -18.852
O 78.887 5.930 -19.868
O 234.133 23.733 -23.162
O 58.463 8.034 -23.261
O 64.521 4.252 -26.549
O 57.105 11.544 -28.886
O 61.452 1.666 -4.637
O 51.685 11.228 -1.960
O 73.377 13.083 -16.875
O 194.219 1.172 -25.288
O 222.912 15.084 -19.125
O 205.033 1.418 -15.521
O 201.794 12.353 -30.213
O 222.383 12.168 -11.373
O 219.590 16.064 -30.230
O 64.754 15.181 -15.312
O 217.606 20.445 -28.114
O 51.898 17.205 -23.055
O 190.137 27.753 -16.366
O 199.960 19.966 -22.667
O 199.263 19.257 -8.829
O 193.154 25.222 -28.549
O 226.363 21.233 -23.302
O 186.945 21.233 -13.580
O 48.684 16.922 -17.519
O 194.413 15.470 -11.524
O 237.150 17.933 -25.485
O 211.585 5.579 -8.671
O 196.084 0.550 -16.775
O 73.639 13.947 -30.906
O 79.443 15.605 -11.743
O 80.280 14.973 -18.511
O 67.734 27.494 -25.161
O 191.897 25.993 -18.518
O 84.450 28.468 -25.150
O 64.484 24.768 -19.615
O 49.963 12.876 -25.072
O 233.661 3.985 -11.642
O 206.218 1.120 -19.778
O 228.280 13.288 -17.056
O 208.497 8.308 -14.420
O 66.817 16.992 -18.468
O 51.620 16.489 -10.089
O 186.060 24.270 -9.291
O 60.787 13.709 -25.955
O 225.799 6.873 -19.741
O 204.158 25.857 -21.251
O 77.584 2.629 -16.133
O 203.601 12.516 -25.415
O 212.311 5.672 -18.017
O 198.249 29.628 -30.775
O 81.221 7.979 -15.014
O 81.520 23.362 -26.230
O 81.074 1.725 -5.039
O 52.931 18.793 -9.516
O 73.641 30.797 -13.905
O 74.866 18.814 -8.424
O 202.286 11.760 -21.853
O 212.148 8.444 -16.824
O 217.838 22.222 -18.725
O 206.935 10.747 -14.667
O 57.166 13.652 -30.545
O 203.058 10.941 -8.997
O 221.189 1.948 -31.430
O 73.957 25.378 -17.390
O 53.034 10.971 -20.191
O 209.931 20.599 -29.348
O 222.822 27.794 -22.362
O 77.270 23.957 -12.310
O 55.527 2.933 -23.677
O 82.115 30.145 -7.327
O 201.230 5.746 -29.537
O 69.019 1.550 -27.995
O 51.876 27.790 -17.210
O 209.105 14.037 -27.451
O 61.804 29.875 -4.680
O 45.510 12.713 -30.114
O 51.132 4.917 -16.483
O 211.858 4.004 -20.450
O 82.081 27.406 -3.652
O 70.415 5.113 -1.030
O 211.225 29.799 -11.104
O 203.339 29.906 -21.727
O 210.377 22.116 -24.457
O 76.709 5.681 -12.721
O 217.607 17.783 -16.177
O 196.118 22.104 -1.491
O 198.020 15.791 -15.129
O 68.280 15.399 -0.460
O 85.832 18.963 -14.609
O 194.010 26.763 -13.699
O 237.441 18.479 -14.952
O 193.668 16.535 -21.985
O 215.468 16.628 -14.976
O 202.318 19.285 -18.381
O 212.527 14.857 -25.297
O 220.571 27.578 -20.463
O 84.813 25.947 -24.381
O 63.852 2.506 -28.373
O 53.304 8.920 -22.930
O 78.401 19.838 -14.365
O 47.757 6.556 -6.893
O 61.812 4.150 -2.673
O 209.523 4.951 -23.598
O 235.332 0.739 -24.244
O 59.319 13.828 -23.662
O 72.743 3.001 -25.743
O 79.466 27.142 -28.898
O 212.126 18.913 -7.443
O 221.736 0.015 -21.746
O 214.758 8.702 -18.743
O 78.926 21.822 -6.342
O 230.256 13.964 -7.161
O 58.660 19.032 -13.391
O 84.791 10.952 -13.734
O 54.704 3.456 -1.869
O 204.691 27.071 -29.852
O 190.946 3.306 -22.260
O 218.874 3.409 -26.877
O 81.505 25.034 -17.916
O 190.462 15.138 -8.222
O 59.778 8.647 -20.686
O 184.316 1.461 -6.793
O 211.042 11.030 -2.634
O 66.229 0.944 -23.819
O 210.181 18.701 -5.696
O 71.854 14.797 -15.596
O 210.231 25.743 -6.580
O 45.499 30.956 -6.105
O 74.366 28.066 -7.653
O 66.302 14.962 -4.106
O 74.549 6.181 -10.615
O 232.085 11.863 -7.462
O 200.956 5.817 -1.944
O 197.303 23.151 -30.447
O 216.172 26.365 -21.308
O 48.810 12.116 -18.360
O 61.834 26.867 -15.811
O 57.115 12.625 -8.075
O 84.201 13.634 -7.774
O 201.130 27.302 -15.644
O 189.101 8.501 -10.740
O 218.317 4.435 -3.647
O 53.690 5.453 -28.909
O 208.826 17.129 -20.849
O 66.657 27.780 -9.667
O 205.326 11.350 -30.501
O 53.662 22.476 -28.047
O 73.596 28.410 -30.942
O 77.787 9.458 -6.716
O 214.882 11.649 -16.573
O 213.168 11.463 -11.208
O 63.142 30.144 -17.699
O 224.045 8.171 -27.917
O 221.865 6.271 -19.624
O 206.948 11.147 -26.770
O 213.851 26.816 -26.944
O 206.914 22.108 -24.216
O 77.942 14.484 -14.008
O 196.398 11.976 -9.601
O 79.808 5.240 -31.421
O 206.381 7.175 -10.873
O 205.619 8.642 -5.426
O 195.564 14.773 -20.502
O 187.350 28.462 -5.051
O 46.173 27.400 -28.133
O 212.736 28.395 -8.666
O 228.857 12.234 -5.749
O 52.860 7.183 -10.989
O 216.640 21.305 -15.243
O 202.984 16.436 -12.270
O 60.647 22.203 -7.507
O 235.506 30.347 -27.668
O 219.430 1.353 -22.389
O 223.337 24.927 -21.968
O 226.904 12.941 -8.181
O 218.944 20.833 -13.108
O 195.895 15.652 -7.094
O 231.328 28.202 -4.773
O 74.347 21.864 -28.585
O 233.041 18.902 -2.741
O 89.457 24.593 -14.514
O 58.490 8.109 -3.706
O 189.199 15.571 -18.254
O 49.648 4.677 -0.387
O 196.077 6.501 -11.650
O 53.809 20.800 -5.943
O 60.584 24.119 -18.267
O 234.876 26.733 -30.713
O 186.561 30.545 -14.750
O 80.897 5.021 -17.031
O 192.567 6.000 -25.006
O 213.857 6.531 -3.054
O 47.313 29.486 -7.820
O 51.586 29.386 -2.782
O 79.481 16.715 -29.247
O 64.105 15.329 -28.946
O 204.903 21.962 -14.355
O 81.395 5.231 -11.124
O 191.556 22.636 -13.172
O 84.255 18.353 -0.940
O 84.490 29.681 -5.587
O 210.641 24.005 -16.915
O 61.999 24.657 -8.106
O 65.548 5.349 -7.360
O 74.766 12.531 -3.671
O 55.540 24.782 -9.854
O 62.922 24.172 -1.298
O 84.070 4.024 -31.337
O 189.536 20.600 -29.157
O 195.836 27.134 -31.082
O 197.020 20.162 -6.077
O 205.401 18.827 -29.113
O 203.284 30.230 -25.983
O 70.759 17.682 -18.547
O 199.348 29.634 -23.565
O 231.004 16.111 -12.902
O 57.085 3.565 -6.548
O 67.798 7.424 -3.502
O 197.346 1.835 -9.375
O 210.441 16.727 -25.585
O 64.028 3.093 -7.510
O 227.743 17.681 -27.846
O 203.655 6.778 -11.411
O 208.368 29.707 -21.983
O 229.585 21.360 -23.339
O 80.512 29.265 -12.293
O 67.243 27.689 -22.243
O 199.454 0.512 -30.068
O 52.144 14.113 -0.690
O 82.525 28.305 -15.339
O 69.833 12.163 -4.341
O 183.508 23.288 -10.645
O 186.371 19.183 -24.881
O 198.923 13.329 -27.311
O 61.584 20.834 -15.877
O 75.262 15.466 -8.367
O 233.491 19.601 -7.683
O 210.007 2.097 -23.352
O 229.192 14.024 -12.884
O 216.832 1.146 -29.911
O 83.083 0.996 -17.549
O 202.071 30.334 -9.063
O 77.012 25.749 -20.572
O 194.917 27.673 -16.250
O 193.866 23.665 -4.498
O 203.549 15.680 -31.120
O 205.835 16.111 -29.698
O 206.639 7.512 -21.900
O 58.187 27.477 -14.803
O 229.419 11.809 -18.960
O 193.431 3.513 -11.493
O 215.323 26.311 -15.062
O 227.341 6.586 -21.955
O 187.511 13.351 -7.042
O 203.733 6.532 -22.808
O 213.338 26.173 -19.645
O 64.220 2.977 -23.955
O 47.553 24.474 -5.153
O 195.425 2.823 -21.543
O 232.983 4.667 -1.525
O 73.282 28.437 -20.440
O 48.058 9.018 -13.772
O 69.895 23.185 -30.086
O 209.452 9.157 -26.329
O 213.494 30.418 -20.374
O 61.881 0.699 -24.268
O 203.146 28.214 -24.236
O 197.184 4.985 -30.672
O 184.436 23.166 -28.032
O 51.784 21.007 -16.283
O 222.539 8.612 -12.073
O 86.703 2.920 -2.125
O 228.494 7.692 -18.672
O 221.027 12.374 -26.016
O 84.078 5.727 -24.527
O 234.592 28.512 -25.928
O 206.243 1.617 -3.498
O 191.683 15.601 -27.812
O 60.507 12.330 -7.050
O 53.906 16.512 -18.442
O 75.205 28.560 -1.616
O 210.390 29.504 -29.406
O 73.481 23.718 -10.021
O 66.463 24.280 -27.494
O 186.732 0.894 -2.256
O 197.557 26.443 -11.142
O 217.816 23.511 -23.061
O 204.908 29.947 -8.517
O 69.649 8.871 -0.496
O 186.395 28.287 -28.220
O 56.891 5.803 -19.848
O 51.440 7.931 -28.441
O 53.422 27.111 -13.552
O 207.955 26.516 -23.685
O 188.668 20.509 -10.187
O 79.439 9.520 -21.504
O 72.772 22.807 -4.856
O 70.273 15.023 -6.578
O 50.645 15.117 -21.691
O 205.278 10.627 -24.433
O 194.882 6.622 -9.216
O 224.150 28.473 -25.288
O 86.276 3.779 -27.336
O 85.791 24.041 -11.205
O 63.113 6.592 -21.332
O 85.168 16.197 -10.476
O 72.324 8.847 -0.150
O 59.530 25.712 -5.741
O 228.711 1.501 -16.373
O 231.314 28.253 -9.372
O 77.012 30.541 -0.860
O 230.080 23.963 -25.971
O 52.983 16.289 -12.657
O 217.588 28.700 -12.067
O 85.321 21.478 -17.847
O 62.702 9.065 -4.826
O 237.016 20.155 -23.788
O 195.999 10.539 -18.539
O 83.897 17.213 -20.377
O 82.520 23.354 -8.189
O 61.041 29.581 -13.090
O 211.489 17.590 -19.912
O 73.172 17.196 -23.120
O 230.873 1.820 -3.481
O 222.757 24.720 -19.254
O 199.458 10.174 -18.051
O 66.521 25.099 -12.719
O 47.470 16.442 -22.934
O 209.045 4.229 -1.358
O 72.016 26.159 -8.830
O 66.969 29.193 -27.379
O 50.734 3.113 -3.516
O 206.370 12.564 -2.034
O 62.229 12.226 -16.831
O 225.719 2.918 -19.663
O 56.437 7.838 -0.508
O 195.807 10.198 -13.790
O 220.590 29.005 -30.510
O 61.852 18.866 -9.365
O 186.809 8.211 -18.996
O 215.293 24.419 -12.188
O 50.537 5.317 -27.592
O 217.751 5.922 -19.817
O 59.110 31.326 -7.152
O 233.645 7.443 -7.931
O 235.790 19.194 -27.515
O 190.953 7.895 -21.435
O 214.331 3.991 -17.085
O 188.605 19.981 -26.540
O 82.010 8.870 -3.025
O 68.108 16.530 -24.436
O 85.381 12.765 -17.247
O 215.642 29.553 -10.534
O 204.196 27.214 -7.808
O 186.731 29.208 -17.266
O 224.659 9.717 -19.706
O 220.208 29.889 -1.690
O 220.414 21.530 -8.287
O 235.486 2.346 -30.401
O 60.174 0.622 -11.134
O 81.439 4.136 -26.694
O 236.163 28.286 -8.945
O 202.396 22.698 -8.588
O 50.704 24.855 -10.342
O 78.892 18.649 -4.203
O 233.788 1.229 -21.351
O 82.123 8.404 -30.564
O 211.180 18.367 -1.381
O 65.655 25.526 -25.030
O 66.835 21.403 -7.445
O 76.544 21.749 -25.052
O 234.414 6.383 -29.789
O 219.281 16.574 -2.879
O 56.486 7.083 -10.446
O 223.755 4.527 -24.509
O 232.803 12.771 -1.380
O 216.443 21.784 -3.669
O 75.771 9.482 -21.973
O 226.693 27.402 -25.023
O 217.141 4.595 -31.045
O 63.359 22.697 -4.642
O 225.259 9.010 -1.582
O 74.992 29.281 -28.425
O 191.670 21.994 -30.041
O 203.069 9.461 -23.163
O 47.109 9.973 -30.814
O 45.544 10.319 -5.815
O 83.399 31.194 -15.049
O 196.994 23.987 -18.576
O 203.740 6.215 -25.798
O 64.856 9.437 -18.133
O 187.560 22.332 -31.050
O 79.400 14.896 -26.950
O 205.753 1.852 -24.704
O 217.894 24.445 -4.012
O 194.459 19.976 -5.461
O 74.412 10.744 -19.847
O 202.183 27.153 -0.380
O 219.834 27.136 -6.557
O 86.876 26.342 -14.612
O 52.523 25.130 -29.432
O 203.145 1.619 -9.174
O 200.189 11.734 -6.345
O 235.869 20.397 -21.315
O 229.088 28.024 -21.323
O 198.045 7.975 -8.957
O 191.245 21.947 -16.258
O 84.284 10.330 -31.066
O 200.372 30.965 -25.847
O 203.032 19.693 -30.077
O 227.276 6.740 -12.714
O 216.504 15.255 -3.430
O 193.090 12.538 -13.956
O 191.605 16.454 -30.776
O 225.196 28.916 -6.109
O 50.693 22.747 -14.317
O 57.433 23.162 -21.702
O 84.752 24.567 -15.752
O 71.804 20.093 -26.447
O 70.739 8.380 -24.677
O 232.441 8.254 -4.721
O 211.026 20.385 -3.599
O 51.354 29.436 -30.270
O 236.190 27.387 -2.671
O 46.284 18.827 -0.201
O 84.826 4.209 -18.659
O 226.724 30.792 -2.239
O 196.647 2.222 -24.864
O 187.272 6.253 -4.246
O 232.527 17.765 -14.670
O 85.049 21.209 -21.099
O 214.377 7.586 -21.265
O 56.924 17.904 -1.609
O 195.575 12.067 -15.813
O 199.738 24.858 -11.855
O 221.560 16.139 -23.312
O 205.079 26.228 -23.791
O 77.829 25.843 -14.334
O 70.574 2.873 -15.474
O 71.760 25.832 -14.959
O 193.467 2.765 -28.229
O 216.553 21.164 -21.372
O 195.509 4.904 -28.116
O 186.490 3.868 -5.678
O 48.879 12.523 -8.794
O 72.745 15.894 -1.146
O 201.892 25.523 -23.080
O 79.282 5.718 -26.666
O 45.660 13.507 -24.041
O 211.101 24.613 -30.400
O 191.162 31.424 -6.331
O 194.561 27.439 -2.983
O 230.847 26.460 -19.327
O 59.192 5.772 -28.732
O 84.678 14.680 -19.261
O 47.911 4.046 -3.685
O 79.183 7.215 -12.154
O 206.355 19.995 -1.634
O 63.172 18.685 -20.021
O 46.447 22.924 -1.435
O 71.099 30.029 -14.171
O 189.743 3.944 -2.093
O 221.599 11.034 -5.997
O 200.914 7.318 -21.152
O 216.782 11.510 -22.416
O 202.238 14.786 -14.284
O 64.862 26.907 -21.125
O 210.393 13.165 -13.162
O 219.234 24.115 -14.989
O 214.381 7.082 -27.198
O 75.136 9.911 -13.424
O 197.950 30.545 -2.585
O 197.290 17.078 -0.037
O 66.206 8.280 -30.976
O 72.212 8.253 -10.640
O 202.329 3.525 -30.678
O 201.066 22.566 -28.049
O 72.376 3.466 -4.226
O 208.051 21.087 -12.218
O 229.334 30.535 -2.924
O 208.974 11.368 -24.706
O 48.133 8.747 -26.503
O 230.382 23.791 -1.984
O 206.518 14.658 -9.305
O 207.556 22.674 -5.200
O 232.727 7.604 -27.833
O 77.638 11.524 -4.461
O 199.693 15.447 -8.556
O 237.399 0.350 -26.070
O 204.156 0.586 -5.082
O 227.660 3.693 -8.787
O 191.472 17.202 -9.483
O 221.011 12.055 -17.760
O 226.698 27.404 -9.383
O 208.856 17.534 -30.622
O 221.040 26.578 -13.865
O 195.226 29.295 -26.184
O 193.181 14.194 -19.254
O 61.913 0.743 -7.181
O 190.049 21.954 -20.005
O 195.375 16.079 -15.311
O 188.280 1.033 -5.579
O 209.661 24.901 -3.951
O 193.596 22.734 -27.866
O 54.256 28.468 -3.560
O 216.400 19.561 -23.543
O 77.615 4.743 -28.785
O 196.279 15.628 -2.936
O 205.881 6.744 -30.857
O 53.607 28.302 -6.218
O 69.050 21.756 -24.012
O 232.048 11.133 -24.249
O 219.948 9.895 -25.197
O 210.610 8.428 -3.736
O 70.281 2.904 -19.393
O 209.014 23.949 -20.794
O 213.195 25.955 -1.691
O 65.761 0.996 -18.462
O 193.432 2.792 -19.849
O 235.596 24.849 -2.561
O 198.372 9.385 -24.254
O 192.030 12.836 -8.428
O 80.252 22.351 -16.255
O 233.676 6.998 -20.895
O 48.802 17.865 -7.354
O 69.141 10.350 -8.523
O 69.064 13.542 -18.252
O 233.667 11.464 -29.991
O 77.958 16.870 -2.540
O 234.369 14.699 -18.138
O 51.862 0.947 -14.081
O 59.149 18.794 -7.763
O 58.562 7.890 -16.905
O 206.322 9.406 -17.104
O 229.360 20.384 -28.929
O 185.444 30.540 -19.380
O 56.415 29.106 -7.010
O 222.942 14.066 -9.476
O 52.417 25.844 -6.170
O 236.183 14.302 -5.381
O 196.263 22.915 -28.037
O 191.841 6.752 -27.524
O 46.272 7.593 -8.977
O 195.319 29.778 -2.020
O 199.341 21.031 -1.407
O 218.016 24.627 -28.030
O 85.394 21.849 -15.065
O 66.399 3.169 -2.134
O 193.512 5.390 -5.073
O 220.406 18.839 -19.280
O 56.807 22.036 -5.034
O 219.412 16.380 -18.480
O 60.537 0.330 -17.838
O 71.042 29.801 -5.278
O 208.743 7.840 -23.604
O 186.482 3.039 -26.711
O 66.619 16.232 -12.251
O 234.395 15.157 -28.466
O 58.013 8.856 -14.001
O 82.094 5.390 -8.438
O 76.876 21.262 -12.706
O 189.308 11.372 -26.833
O 60.586 2.132 -1.265
O 191.885 10.592 -15.889
O 236.191 31.051 -20.432
O 202.997 4.114 -7.733
O 228.290 1.935 -6.798
O 211.822 25.144 -23.878
O 85.157 26.200 -9.502
O 74.696 16.723 -25.823
O 80.148 19.798 -25.851
O 228.255 1.997 -2.974
O 199.808 6.202 -7.189
O 207.542 19.844 -30.686
O 187.073 10.356 -23.399
O 83.999 29.100 -21.512
O 187.809 14.800 -9.517
O 220.672 1.211 -16.633
O 45.487 4.454 -19.619
O 226.530 7.592 -28.853
O 71.105 9.238 -6.318
O 80.948 10.817 -25.740
O 59.233 17.348 -19.328
O 208.128 10.943 -18.541
O 235.576 29.839 -4.454
O 60.397 7.116 -25.727
O 205.569 4.523 -16.260
O 54.733 18.720 -26.492
O 223.780 11.052 -17.226
O 58.694 18.378 -5.089
O 74.773 22.058 -21.383
O 226.216 22.996 -16.163
O 70.322 25.453 -19.587
O 82.343 12.423 -30.280
O 228.344 10.404 -15.932
O 46.736 26.774 -2.752
O 187.279 7.142 -21.506
O 76.022 24.630 -9.900
O 64.163 20.874 -28.804
O 186.842 31.000 -31.232
O 81.612 24.697 -4.524
O 57.434 4.486 -16.531
O 224.766 17.692 -1.996
O 77.946 26.626 -0.011
O 198.754 27.254 -27.740
O 227.169 12.227 -13.124
O 214.508 29.320 -28.137
O 207.286 16.020 -1.295
O 67.446 15.356 -16.518
O 53.846 3.381 -16.985
O 74.569 24.491 -6.425
O 212.899 31.241 -27.032
O 54.411 29.587 -22.332
O 212.572 25.620 -12.309
O 232.697 22.560 -21.091
O 228.289 6.733 -10.094
O 209.959 15.867 -14.208
O 87.077 21.557 -11.106
O 232.848 31.359 -27.522
O 57.788 13.091 -26.009
O 48.459 29.407 -20.099
O 194.745 16.768 -4.903
O 85.692 8.841 -19.734
O 185.586 20.879 -9.153
O 201.139 8.883 -8.686
O 61.255 7.195 -6.231
O 74.442 11.162 -10.755
O 67.745 2.808 -18.695
O 55.821 10.008 -22.889
O 185.333 25.827 -30.989
O 58.727 14.297 -10.017
O 197.733 23.436 -7.660
O 212.284 0.135 -18.082
O 211.965 23.945 -27.933
O 70.749 19.886 -4.948
O 54.736 19.406 -3.522
O 208.005 5.981 -26.473
O 58.669 31.400 -30.786
O 187.827 23.141 -11.194
O 185.781 7.135 -30.032
O 235.426 23.521 -0.298
O 66.470 18.258 -27.204
O 221.989 13.502 -4.608
O 50.719 18.432 -14.738
O 56.012 10.006 -10.479
O 196.774 28.769 -13.050
O 217.202 5.551 -27.730
O 209.156 26.108 -13.236
O 47.885 11.255 -15.578
O 186.103 22.596 -7.158
O 217.541 30.845 -22.503
O 222.165 29.980 -23.945
O 68.164 11.714 -20.375
O 85.473 1.401 -18.560
O 78.892 21.851 -2.080
O 215.153 13.733 -7.262
O 188.146 4.545 -28.538
O 72.382 2.004 -28.694
O 48.321 26.386 -19.727
O 216.221 10.067 -12.925
O 223.310 26.516 -9.985
O 87.558 13.695 -12.834
O 227.769 13.211 -2.603
O 75.865 1.786 -22.544
O 219.545 14.696 -10.265
O 216.844 11.230 -8.378
O 213.964 7.229 -12.871
O 209.910 22.247 -27.153
O 202.006 10.194 -17.210
O 237.377 24.372 -7.465
O 75.172 13.227 -12.855
O 205.948 14.740 -18.321
O 195.437 26.094 -5.655
O 194.492 19.750 -8.199
O 50.752 15.935 -28.674
O 62.100 16.552 -16.694
O 57.552 22.929 -30.976
O 219.609 29.310 -10.327
O 226.761 16.466 -17.062
O 213.514 29.752 -13.000
O 52.604 2.479 -5.509
O 68.637 9.982 -2.866
O 223.291 16.405 -29.983
O 228.711 18.178 -12.045
O 54.375 30.996 -27.718
O 191.031 4.133 -4.775
O 221.360 8.172 -23.289
O 81.782 13.072 -15.071
O 195.357 30.910 -19.116
O 189.833 24.314 -18.509
O 208.670 9.356 -12.002
O 200.367 20.660 -4.906
O 198.911 7.140 -12.373
O 195.169 23.575 -16.230
O 77.878 29.753 -12.386
O 63.800 18.670 -12.201
O 84.817 30.749 -30.166
O 68.465 30.484 -29.772
O 228.268 9.676 -9.118
O 198.084 21.068 -10.655
O 192.172 24.578 -23.501
O 51.366 31.224 -7.650
O 187.399 17.239 -27.165
O 55.557 9.348 -15.023
O 87.922 5.621 -5.294
O 56.353 5.688 -2.893
O 59.727 30.510 -20.455
O 60.133 9.864 -11.045
O 49.642 29.762 -23.721
O 193.788 10.901 -1.931
O 202.792 12.088 -6.016
O 78.971 6.879 -24.151
O 215.132 28.267 -19.669
O 66.195 19.140 -4.133
O 196.301 8.350 -2.293
O 187.381 25.728 -1.344
O 222.941 21.367 -9.324
O 68.296 13.052 -2.021
O 232.500 15.287 -30.706
O 223.154 22.690 -11.816
O 70.125 25.047 -6.407
O 218.218 12.638 -3.726
O 208.191 3.724 -10.622
O 220.770 27.611 -2.975
O 45.714 28.634 -18.358
O 228.508 9.463 -6.262
O 75.479 30.213 -6.385
O 223.577 22.985 -5.145
O 203.764 3.589 -28.159
O 210.707 20.852 -13.105
O 202.765 20.970 -3.715
O 195.867 12.005 -5.714
O 231.769 29.777 -23.483
O 63.778 17.487 -27.366
O 219.256 1.995 -29.078
O 218.361 8.530 -29.302
O 229.801 0.050 -11.089
O 45.799 13.545 -7.674
O 235.216 10.959 -20.294
O 71.342 13.412 -13.332
O 220.178 20.185 -15.325
O 192.515 28.007 -25.416
O 207.891 11.915 -29.182
O 192.903 4.728 -18.149
O 50.068 22.256 -9.291
O 55.585 5.733 -22.363
O 52.710 7.038 -14.365
O 193.871 8.489 -28.048
O 78.723 26.334 -6.164
O 58.477 13.606 -1.731
O 49.469 1.778 -7.840
O 233.336 17.690 -17.411
O 194.858 7.667 -30.471
O 61.547 29.041 -22.118
O 46.269 21.341 -11.662
O 197.744 7.928 -16.841
O 216.056 9.324 -10.030
O 80.350 12.184 -17.430
O 50.832 19.446 -21.651
O 50.336 7.902 -20.251
O 219.013 7.619 -26.623
O 62.568 3.201 -12.112
O 192.513 24.372 -16.379
O 79.373 28.913 -17.219
O 54.663 6.050 -18.379
O 214.494 22.734 -27.246
O 235.749 18.272 -18.731
O 67.854 9.608 -17.951
O 81.928 25.701 -24.881
O 72.410 25.188 -12.182
O 208.477 13.607 -10.924
O 203.409 23.914 -6.063
O 79.259 24.843 -16.614
O 76.527 3.257 -31.136
O 83.190 26.406 -29.024
O 197.040 0.399 -21.023
O 228.076 24.556 -3.353
O 185.782 17.506 -31.145
O 207.986 9.645 -4.476
O 232.606 10.249 -27.614
O 83.293 2.215 -13.940
O 82.518 16.761 -27.183
O 46.418 26.717 -7.926
O 205.915 29.695 -20.390
O 214.552 24.764 -30.882
O 62.720 10.868 -7.042
O 199.664 25.198 -3.313
O 219.032 4.014 -9.881
O 233.100 6.986 -17.212
O 198.256 8.883 -14.262
O 67.260 9.163 -11.657
O 225.270 1.209 -3.606
O 83.773 25.757 -7.198
O 189.705 16.275 -25.879
O 231.080 0.844 -22.338
O 79.116 0.334 -28.476
O 221.512 5.435 -29.548
O 213.868 23.379 -3.434
O 47.992 18.999 -21.550
O 234.404 6.443 -3.845
O 74.883 17.682 -10.998
O 53.715 9.983 -31.360
O 236.018 17.968 -5.239
O 227.846 25.090 -12.317
O 71.948 13.186 -28.601
O 233.537 27.732 -28.319
O 203.534 17.429 -4.985
O 232.200 9.150 -21.510
O 223.345 5.753 -1.810
O 65.112 15.368 -0.304
O 193.560 25.520 -21.410
O 62.252 20.625 -5.735
O 57.382 3.055 -19.956
O 62.007 5.527 -19.056
O 187.342 5.877 -15.167
O 76.896 10.113 -15.425
O 79.207 23.074 -29.176
O 71.280 10.989 -10.581
O 211.881 10.571 -7.883
O 50.436 10.429 -21.651
O 189.427 12.014 -16.385
O 222.548 16.452 -16.293
O 211.714 2.500 -0.279
O 201.248 0.230 -5.757
O 67.743 13.206 -26.915
O 77.418 16.123 -20.355
O 224.933 24.338 -9.764
O 64.955 25.794 -14.881
O 224.342 11.761 -8.873
O 229.921 17.054 -29.997
O 64.732 14.025 -6.275
O 221.686 18.865 -10.726
O 76.818 1.548 -4.220
O 184.106 3.230 -3.804
O 217.756 6.961 -17.183
O 195.777 17.472 -17.806
O 220.626 23.135 -12.743
O 216.502 16.937 -19.673
O 222.640 27.861 -5.195
O 206.143 16.743 -22.656
O 192.146 11.744 -26.203
O 196.517 8.029 -21.358
O 204.855 4.049 -2.589
O 82.424 18.235 -24.825
O 72.335 28.680 -10.093
O 216.205 21.247 -25.804
O 235.247 23.648 -9.269
O 57.188 8.727 -19.284
O 219.136 26.892 -15.822
O 60.977 22.239 -0.667
O 224.774 22.690 -2.575
O 190.321 5.301 -18.430
O 71.228 11.588 -18.324
O 65.944 17.439 -14.504
O 67.878 3.583 -12.405
O 47.543 19.633 -26.963
O 212.531 23.189 -1.025
O 224.788 28.566 -19.053
O 84.333 9.608 -4.277
O 210.765 6.520 -1.599
O 79.035 17.410 -6.570
O 234.471 26.607 -10.464
O 214.320 16.118 -21.606
O 235.611 22.673 -13.863
O 63.002 12.829 -28.136
O 49.432 9.191 -1.961
O 202.690 14.455 -21.793
O 224.575 12.748 -4.281
O 76.442 18.136 -13.831
O 189.473 20.460 -23.736
O 185.377 10.114 -16.478
O 70.693 30.701 -9.114
O 199.137 2.727 -23.948
O 54.768 4.356 -8.583
O 212.223 27.123 -21.822
O 225.322 28.810 -30.231
O 62.688 15.720 -6.788
O 233.760 29.212 -12.020
O 61.578 20.683 -11.684
O 232.608 4.153 -28.982
O 227.583 25.440 -18.663
O 50.905 29.007 -26.230
O 70.006 10.202 -26.547
O 216.766 13.383 -18.955
O 51.957 13.261 -4.114
O 192.105 20.894 -6.704
O 190.001 29.388 -26.229
O 74.186 7.422 -4.275
O 211.494 25.788 -14.917
O 52.791 24.811 -3.500
O 225.608 8.510 -9.102
O 215.186 27.179 -9.482
O 61.644 26.342 -2.271
O 58.750 2.285 -29.652
O 72.390 21.702 -30.761
O 208.495 17.119 -27.939
O 192.882 5.227 -1.431
O 219.271 25.018 -11.154
O 86.558 1.102 -21.322
O 202.519 22.982 -21.587
O 214.161 3.821 -3.421
O 200.820 28.183 -10.223
O 62.729 12.139 -21.011
O 233.088 25.841 -5.867
O 222.934 13.695 -23.477
O 233.144 10.983 -10.622
O 75.518 29.186 -24.542
O 71.908 2.896 -31.378
O 84.213 8.041 -26.490
O 220.230 14.718 -21.197
O 203.578 16.506 -7.835
O 197.279 19.486 -16.759
O 189.472 24.484 -0.231
O 206.206 1.150 -0.539
O 207.725 28.584 -27.725
O 236.720 15.850 -16.081
O 186.801 18.619 -7.331
O 201.044 0.114 -2.871
O 200.166 10.975 -28.274
O 219.618 9.205 -5.205
O 68.589 25.664 -17.451
O 58.814 22.608 -2.419
O 210.286 22.730 -2.164
O 69.917 1.130 -31.055
O 79.777 26.805 -2.324
O 207.512 12.737 -20.427
O 79.184 8.181 -30.192
O 64.889 4.569 -4.117
O 212.463 17.069 -9.590
O 212.781 17.573 -16.996
O 67.226 10.607 -23.020
O 59.345 12.835 -21.252
O 61.372 22.558 -27.084
O 219.473 29.018 -18.301
O 54.250 7.253 -8.558
O 52.774 11.983 -15.636
O 236.292 20.317 -16.953
O 72.748 0.316 -25.683
O 82.827 13.159 -20.819
O 213.617 5.059 -6.581
O 83.420 11.505 -6.383
O 211.018 1.684 -5.526
O 71.442 23.335 -8.168
O 196.557 18.970 -24.399
O 206.171 23.470 -7.550
O 57.076 23.385 -14.845
O 202.194 3.478 -18.611
O 212.406 6.867 -25.039
O 77.480 21.127 -27.609
O 217.869 31.215 -18.760
O 74.528 31.150 -16.515
O 189.545 29.631 -31.386
O 222.981 10.536 -14.574
O 220.070 0.314 -9.223
O 50.692 20.906 -19.505
O 73.430 11.771 -24.725
O 193.451 21.037 -0.504
O 59.636 30.499 -15.511
O 193.006 31.325 -2.195
O 209.358 3.012 -30.250
O 56.962 25.771 -7.740
O 209.743 9.729 -6.441
O 82.772 1.699 -23.438
O 191.257 19.441 -1.427
O 213.653 2.541 -28.880
O 222.762 20.114 -13.083
O 63.391 7.195 -17.412
O 215.620 25.067 -23.660
O 209.800 9.573 -29.078
O 63.147 16.451 -24.798
O 65.755 17.641 -30.186
O 232.729 25.775 -8.629
O 51.427 21.861 -26.264
O 61.767 24.029 -15.601
O 225.208 13.340 -17.224
O 53.688 14.559 -26.857
O 51.764 2.320 -11.619
O 48.617 18.347 -30.111
O 72.544 28.191 -23.599
O 49.720 26.084 -14.389
O 48.567 0.929 -23.408
O 208.774 28.201 -9.050
O 65.201 1.428 -0.274
O 225.802 4.876 -1.083
O 230.649 22.474 -17.322
O 48.195 13.562 -22.887
O 76.113 11.638 -17.804
O 217.872 20.983 -6.363
O 186.075 25.121 -21.444
O 185.896 18.327 -12.016
O 48.962 17.303 -9.886
O 228.999 25.151 -23.243
O 74.777 5.858 -14.520
O 191.381 16.836 -23.776
O 206.119 2.353 -29.309
O 216.872 23.186 -0.384
O 64.263 11.006 -15.254
O 222.827 25.048 -15.084
O 75.970 12.914 -25.172
O 187.191 26.907 -9.404
O 61.151 26.443 -29.029
O 188.053 17.000 -13.813
O 190.747 5.153 -29.260
O 189.233 1.324 -3.161
O 233.406 18.797 -28.958
O 204.472 10.466 -3.336
O 183.747 3.942 -27.673
O 219.987 19.246 -6.566
O 87.343 23.113 -13.406
O 236.814 6.409 -31.134
O 84.033 13.612 -1.887
O 79.491 26.550 -19.147
O 203.303 7.172 -4.731
O 56.017 2.779 -30.857
O 192.323 17.198 -3.060
O 56.381 2.236 -17.520
O 51.867 14.395 -16.466
O 231.302 14.586 -9.879
O 54.416 31.110 -30.453
O 62.291 20.037 -30.883
O 187.762 15.936 -21.902
O 79.682 21.393 -23.846
O 64.461 16.832 -4.384
O 74.934 8.538 -30.527
O 76.958 28.533 -26.659
O 66.164 7.087 -14.897
O 74.128 20.445 -23.557
O 190.721 17.703 -19.167
O 225.421 13.547 -30.250
O 223.324 7.371 -30.520
O 218.110 20.436 -9.521
O 65.799 30.593 -9.953
O 234.724 3.472 -14.913
O 53.066 13.143 -23.400
O 81.254 0.750 -9.090
O 235.568 27.779 -6.339
O 81.744 21.257 -29.662
O 63.031 16.335 -2.247
O 219.235 14.732 -5.187
O 74.795 2.451 -16.997
O 46.307 4.346 -6.001
O 79.358 3.605 -3.699
O 75.805 3.731 -6.253
O 67.516 5.521 -1.106
O 209.442 27.094 -20.944
O 200.725 21.364 -19.864
O 201.406 29.183 -19.847
O 209.004 6.501 -10.280
O 199.185 31.108 -13.442
O 184.687 21.085 -11.935
O 190.469 0.361 -15.531
O 207.132 30.752 -11.921
O 234.714 22.666 -16.459
O 83.061 2.601 -8.563
O 189.074 27.515 -11.627
O 215.014 2.371 -7.413
O 46.904 7.879 -4.876
O 225.638 15.821 -19.400
O 214.333 3.070 -21.326
O 228.831 6.008 -27.146
O 79.898 2.388 -20.209
O 81.407 27.825 -20.492
O 221.006 13.848 -30.974
O 190.382 3.803 -13.568
O 58.812 30.186 -9.673
O 194.059 31.038 -22.765
O 82.541 19.936 -2.355
O 191.766 9.506 -3.841
O 61.506 5.550 -23.413
O 197.062 21.916 -20.815
O 184.180 0.830 -2.496
O 60.613 28.393 -0.726
O 215.258 20.012 -1.958
O 224.686 6.565 -11.107
O 54.252 26.611 -19.736
O 235.525 22.026 -25.321
O 75.879 8.357 -2.111
O 203.456 25.451 -26.637
O 205.198 2.508 -13.150
O 222.220 25.702 -1.501
O 198.174 25.327 -0.742
O 211.902 28.873 -1.741
O 57.603 28.745 -0.694
O 81.653 5.957 -23.438
O 232.509 5.058 -5.174
O 68.876 3.891 -26.872
O 193.288 20.541 -14.873
O 49.947 9.396 -6.947
O 194.363 13.556 -24.115
O 190.368 24.881 -12.181
O 226.263 16.166 -29.777
O 206.953 25.243 -4.060
O 67.345 6.022 -17.181
O 59.914 16.317 -26.891
O 234.107 18.587 -24.233
O 77.514 12.261 -11.481
O 73.348 2.803 -23.015
O 225.072 18.827 -13.046
O 203.773 7.783 -14.394
O 224.478 1.606 -15.204
O 55.275 10.166 -4.589
O 80.735 31.325 -25.007
O 72.565 24.025 -0.968
O 50.211 14.860 -18.901
O 214.848 19.276 -11.576
O 187.748 9.172 -0.939
O 214.978 17.875 -29.383
O 222.986 9.342 -9.319
O 191.900 15.478 -12.627
O 56.806 28.504 -24.562
O 198.237 13.271 -15.985
O 60.318 8.374 -29.473
O 60.716 26.434 -21.665
O 76.641 3.385 -11.150
O 228.322 9.171 -2.925
O 200.747 24.969 -14.557
O 53.117 10.752 -28.846
O 62.611 30.996 -15.131
O 76.602 15.437 -16.358
O 47.523 27.431 -30.721
O 231.380 3.602 -7.572
O 218.413 3.126 -19.429
O 234.745 25.879 -18.029
O 68.585 29.006 -13.256
O 229.401 13.820 -20.813
O 85.557 31.111 -25.728
O 212.298 9.381 -12.860
O 226.139 26.096 -6.914
O 194.407 17.645 -13.187
O 51.990 30.227 -15.571
O 223.415 8.148 -17.089
O 197.790 24.213 -24.162
O 88.165 3.103 -22.419
O 79.756 27.802 -14.673
O 68.702 17.526 -28.866
O 202.955 7.689 -16.945
O 81.713 30.099 -18.109
O 84.277 7.463 -11.304
O 194.371 6.242 -13.881
O 234.288 13.672 -11.562
O 63.604 27.429 -4.970
O 212.531 22.637 -9.388
O 61.545 4.406 -29.334
O 49.554 25.786 -6.638
O 222.049 2.604 -14.462
O 73.507 6.101 -20.849
O 68.456 18.380 -5.565
O 46.245 4.512 -26.173
O 192.120 24.576 -7.595
O 47.434 9.088 -17.229
O 78.131 8.726 -3.487
O 236.390 8.435 -26.605
O 230.581 21.412 -26.678
O 191.922 14.231 -24.605
O 210.133 0.822 -26.218
O 49.434 11.016 -4.624
O 72.292 3.433 -10.323
O 60.468 10.980 -19.776
O 215.585 19.488 -8.723
O 212.827 14.296 -12.639
O 54.310 26.500 -27.855
O 220.242 15.974 -7.914
O 203.712 13.249 -0.896
O 206.239 24.169 -15.809
O 48.221 20.204 -9.624
O 189.078 10.779 -2.819
O 78.306 7.896 -14.569
O 81.799 25.163 -10.215
O 82.340 9.857 -9.382
O 200.617 18.249 -29.513
O 51.219 20.543 -11.003
O 69.651 16.827 -16.009
O 192.605 8.670 -0.463
O 230.172 27.901 -1.874
O 46.499 9.363 -1.907
O 208.568 15.571 -6.728
O 45.770 29.831 -10.414
O 82.111 23.376 -14.564
O 61.342 18.680 -13.789
O 71.428 13.328 -8.822
O 59.976 5.364 -11.828
O 201.100 18.104 -11.713
O 52.846 31.429 -20.938
O 203.288 11.373 -19.212
O 224.416 10.911 -28.689
O 225.037 13.829 -26.013
O 53.799 0.432 -17.364
O 70.370 3.012 -7.117
O 193.676 14.029 -16.390
O 84.652 5.816 -28.233
O 52.586 21.815 -22.653
O 211.990 11.821 -21.561
O 213.184 28.474 -5.577
O 66.834 30.608 -0.616
O 47.535 7.030 -24.222
O 207.717 22.952 -28.757
O 212.266 14.957 -30.218
O 196.604 5.429 -22.012
O 197.817 21.446 -24.001
O 73.637 10.004 -26.827
O 228.560 23.006 -19.231
O 225.500 28.482 -21.657
O 54.553 21.197 -14.476
O 231.347 14.782 -4.796
O 200.134 27.539 -4.628
O 195.810 25.089 -12.818
O 197.427 9.280 -30.499
O 214.667 13.982 -23.742
O 230.993 18.882 -7.861
O 209.683 0.203 -20.292
O 186.295 5.279 -17.457
O 54.978 23.476 -0.783
O 46.218 9.037 -21.450
O 232.097 30.775 -8.334
O 46.053 25.663 -12.290
O 61.342 1.641 -13.977
O 206.334 22.701 -1.033
O 196.917 14.341 -23.545
O 214.232 15.004 -9.490
O 222.860 13.495 -28.708
O 80.459 12.085 -28.176
O 80.649 20.120 -0.558
O 55.411 24.716 -18.257
O 46.467 18.332 -18.441
O 53.722 15.754 -3.079
O 52.257 5.062 -19.059
O 217.193 22.830 -10.742
O 56.391 6.884 -24.642
O 214.876 15.912 -17.727
O 60.142 19.740 -2.259
O 85.722 27.274 -5.491
O 215.849 7.007 -5.512
O 214.105 18.734 -22.279
O 224.088 5.018 -18.890
O 50.515 13.839 -6.901
O 193.127 11.956 -30.971
O 225.024 19.278 -24.765
O 67.119 3.552 -5.709
O 78.054 21.746 -8.882
O 232.488 1.947 -16.789
O 205.544 19.956 -12.459
O 220.257 17.125 -27.846
O 215.602 3.708 -13.070
O 196.139 14.433 -31.088
O 72.970 13.257 -20.467
O 48.013 14.721 -10.383
O 61.523 26.829 -12.938
O 66.602 22.368 -11.920
O 217.778 15.233 -28.427
O 75.402 26.764 -15.747
O 193.689 25.608 -31.239
O 230.602 24.657 -30.659
O 64.426 28.871 -0.426
O 83.296 26.026 -13.707
O 68.658 0.973 -8.279
O 229.414 5.386 -6.467
O 84.295 28.303 -30.907
O 226.334 26.555 -27.890
O 190.747 30.442 -3.813
O 213.121 29.332 -30.473
O 81.405 14.511 -8.076
O 235.639 5.880 -25.550
O 223.803 15.793 -27.405
O 62.956 10.803 -12.280
O 198.715 3.832 -14.632
O 56.679 15.575 -3.040
O 84.548 29.156 -18.932
O 227.429 21.349 -6.820
O 211.602 15.894 -5.918
O 62.895 17.400 -31.323
O 220.144 8.781 -13.634
O 203.641 20.569 -9.985
O 60.052 6.018 -3.849
O 227.131 11.454 -30.448
O 227.824 0.886 -20.543
O 233.139 28.038 -16.987
O 62.578 12.385 -24.105
O 193.919 29.564 -12.854
O 187.884 1.210 -23.589
O 235.594 12.505 -17.427
O 228.602 29.897 -12.837
O 69.493 27.610 -28.130
O 59.538 17.586 -0.578
O 207.636 4.285 -13.459
O 225.589 2.999 -5.927
O 65.759 4.278 -14.615
O 52.129 3.779 -1.111
O 53.496 21.799 -12.104
O 186.535 4.619 -30.694
O 53.420 18.554 -14.298
O 202.463 4.540 -4.242
O 65.113 4.660 -21.938
O 200.664 11.184 -1.039
O 57.645 22.123 -25.993
O 50.078 25.684 -30.591
O 49.034 3.828 -29.398
O 226.611 21.357 -18.610
O 199.797 15.577 -5.835
O 207.489 17.341 -14.355
O 65.252 16.206 -21.200
O 80.093 13.181 -20.537
O 63.895 7.859 -25.687
O 71.756 15.241 -22.025
O 208.890 12.415 -6.488
O 85.281 18.972 -10.315
O 206.545 27.503 -5.144
O 202.790 17.952 -1.195
O 73.251 30.573 -18.915
O 234.867 20.616 -11.906
O 65.265 23.866 -22.610
O 75.955 17.473 -0.582
O 204.094 18.694 -16.489
O 77.424 29.460 -22.599
O 195.909 1.651 -2.041
O 84.858 9.821 -8.193
O 48.853 16.282 -2.954
O 50.264 5.383 -12.470
O 199.013 8.907 -1.602
O 200.686 17.701 -4.343
O 59.545 25.182 -26.999
O 57.086 0.158 -15.719
O 70.854 5.071 -21.121
O 191.585 9.766 -8.102
O 54.974 16.241 -21.463
O 227.457 12.872 -22.422
O 186.451 22.323 -22.114
O 45.844 20.405 -8.260
O 53.684 25.918 -0.692
O 189.542 0.897 -21.439
O 191.592 16.220 -5.937
O 209.644 3.894 -15.325
O 220.067 22.449 -17.169
O 217.001 16.134 -0.834
O 63.399 25.673 -11.610
O 47.884 16.378 -13.786
O 225.317 11.767 -1.876
O 69.954 17.131 -8.638
O 57.978 25.806 -21.181
O 54.682 14.302 -7.736
O 45.738 2.037 -16.955
O 217.037 29.119 -1.065
O 85.154 11.162 -2.199
O 194.852 26.831 -27.366
O 80.455 15.262 -5.787
O 221.252 19.768 -30.520
O 54.324 28.400 -25.941
O 216.523 10.516 -29.653
O 190.690 29.262 -7.866
O 216.822 14.923 -11.082
O 85.153 28.545 -13.770
O 68.715 16.003 -4.463
O 226.216 1.133 -17.493
O 49.829 5.525 -24.852
O 213.557 12.375 -3.316
O 53.924 13.615 -12.809
O 209.013 6.408 -4.767
O 206.533 26.202 -8.340
O 81.150 27.726 -7.329
O 78.950 10.882 -30.283
O 202.867 7.008 -7.454
O 57.524 9.966 -8.222
O 219.807 11.849 -10.022
O 205.234 9.891 -20.521
O 72.553 23.409 -15.582
O 203.852 26.508 -4.903
O 68.637 12.524 -6.854
O 52.233 24.363 -12.690
O 214.306 1.177 -16.462
O 48.663 6.615 -9.946
O 220.695 5.542 -27.061
O 187.541 15.514 -30.797
O 229.872 2.521 -9.751
O 206.201 13.707 -6.826
O 185.929 0.058 -27.431
O 64.795 24.059 -8.175
O 229.092 23.552 -14.824
O 192.050 22.447 -25.202
O 213.888 11.514 -6.023
O 78.770 9.155 -25.707
O 194.855 16.965 -24.641
O 199.185 12.845 -8.837
O 202.135 13.076 -3.182
O 194.834 0.260 -5.473
O 233.209 17.567 -5.476
O 220.907 2.713 -2.578
O 64.624 28.600 -15.476
O 210.012 2.001 -17.373
O 235.604 22.247 -28.264
O 77.537 7.466 -21.780
O 235.579 0.429 -1.390
O 216.541 2.917 -1.983
O 220.293 9.022 -8.180
O 184.819 21.501 -25.779
O 228.855 10.209 -22.629
O 210.474 21.397 -15.973
O 227.742 15.867 -21.080
O 74.810 7.554 -16.513
O 220.534 5.099 -13.583
O 58.076 29.508 -28.320
O 73.211 19.174 -3.803
O 210.271 10.413 -15.616
O 213.484 5.062 -14.546
O 62.670 2.407 -30.914
O 208.479 26.335 -26.322
O 221.165 11.357 -28.653
O 70.581 20.965 -21.483
O 82.313 29.236 -23.699
O 205.909 4.225 -7.205
O 46.190 23.510 -14.248
O 237.235 25.688 -4.837
O 210.796 29.126 -26.685
O 50.472 8.079 -11.731
O 80.524 8.844 -5.342
O 184.374 8.386 -28.017
O 68.421 22.662 -14.370
O 77.449 17.767 -17.872
O 224.211 25.644 -4.996
O 71.269 5.521 -7.663
O 214.695 12.198 -0.787
O 53.640 25.778 -16.619
O 188.784 1.225 -13.157
O 232.379 16.970 -21.761
O 231.412 17.174 -27.704
O 65.047 16.512 -10.011
O 227.800 5.189 -17.345
O 197.766 17.565 -6.775
O 80.762 16.074 -2.663
O 50.888 22.929 -3.803
O 220.109 5.503 -17.369
O 46.505 20.695 -20.249
O 195.608 9.249 -6.022
O 65.750 25.045 -1.288
O 50.126 0.451 -3.768
O 61.909 2.241 -9.452
O 198.438 29.878 -10.155
O 67.467 27.472 -3.632
O 61.120 10.872 -26.966
O 201.701 4.673 -25.004
O 228.413 8.964 -27.025
O 62.726 6.165 -12.141
O 191.043 7.182 -2.465
O 214.740 0.838 -5.167
O 53.626 20.031 -29.388
O 64.274 3.858 -18.704
O 214.706 4.924 -28.790
O 198.022 21.794 -3.752
O 52.535 11.936 -26.327
O 185.468 25.954 -27.368
O 70.656 25.879 -1.373
O 83.593 31.269 -1.819
O 188.852 25.250 -27.416
O 212.419 14.416 -19.943
O 224.452 26.021 -12.439
O 68.118 3.027 -23.566
O 230.378 7.853 -16.448
O 190.934 2.915 -27.333
O 55.029 28.636 -18.235
O 78.606 31.302 -2.927
O 230.089 1.212 -18.523
O 230.857 2.674 -12.848
O 230.404 27.793 -26.180
O 215.855 5.438 -21.804
O 47.688 14.394 -29.668
O 55.033 20.462 -10.273
O 202.927 26.312 -10.196
O 200.146 21.662 -7.431
O 232.670 14.771 -15.706
O 80.994 7.907 -19.808
O 186.799 30.003 -11.184
O 230.882 0.042 -14.983
O 76.587 13.100 -8.134
O 46.621 20.688 -4.116
O 208.753 0.280 -29.994
O 68.284 1.249 -2.045
O 79.186 12.640 -23.063
O 199.046 12.832 -18.685
O 191.923 21.447 -4.043
O 220.851 19.223 -25.326
O 224.198 10.499 -5.782
O 63.731 2.154 -2.986
O 52.687 5.601 -24.255
O 195.074 0.337 -9.218
O 207.494 26.726 -15.621
O 198.315 16.972 -23.835
O 220.081 7.486 -21.138
O 208.777 23.267 -31.328
O 188.428 5.039 -25.148
O 81.626 8.254 -11.296
O 235.440 12.242 -24.532
O 62.068 16.144 -13.254
O 206.985 5.606 -3.061
O 230.334 18.662 -17.244
O 75.060 21.566 -8.670
O 204.783 18.982 -20.453
O 61.072 28.233 -17.901
O 210.906 20.115 -9.917
O 204.501 13.442 -28.626
O 74.482 22.756 -18.657
O 214.895 0.540 -11.430
O 213.679 8.544 -29.496
O 190.103 19.332 -8.003
O 67.786 12.067 -13.616
O 49.388 7.096 -3.994
O 200.763 15.253 -2.316
O 234.775 3.585 -19.947
O 185.659 1.538 -22.054
O 234.837 30.744 -8.130
O 58.119 21.259 -7.315
O 183.326 1.429 -31.048
O 200.420 1.988 -20.199
O 227.241 26.131 -21.312
O 68.509 18.420 -14.216
O 70.727 29.164 -20.791
O 76.171 27.344 -9.475
O 224.491 22.546 -28.129
O 49.885 10.924 -30.576
O 71.420 7.487 -29.116
O 64.071 30.572 -23.108
O 187.102 12.363 -25.606
O 187.108 14.582 -28.013
O 191.705 9.762 -29.631
O 70.906 28.082 -7.315
O 60.341 19.035 -25.202
O 232.524 24.169 -18.694
O 84.321 0.982 -27.573
O 63.337 18.420 -6.958
O 56.711 1.048 -7.522
O 226.749 14.142 -5.227
O 231.232 10.559 -17.347
O 76.333 7.461 -8.806
O 196.847 29.535 -15.657
O 57.820 26.763 -29.122
O 204.887 17.747 -13.810
O 87.526 24.079 -23.906
O 72.481 23.870 -24.268
O 236.976 9.774 -23.812
O 62.804 22.607 -21.603
O 229.493 12.931 -0.224
O 63.783 27.659 -9.371
O 46.718 22.261 -6.639
O 201.907 9.081 -26.656
O 222.006 29.039 -9.062
O 211.632 26.876 -3.754
O 232.454 4.880 -19.105
O 215.450 25.087 -28.427
O 70.067 4.420 -29.519
O 224.246 2.672 -26.741
O 65.305 10.512 -20.644
O 237.252 19.036 -12.371
O 228.827 28.248 -5.979
O 225.529 6.625 -15.923
O 201.686 28.924 -13.143
O 231.884 25.951 -12.712
O 191.794 27.805 -0.077
O 200.433 17.032 -19.051
O 69.987 23.842 -10.683
O 197.528 22.149 -15.013
O 232.841 20.721 -17.060
O 83.695 23.631 -18.259
O 76.105 27.650 -12.717
O 197.989 19.299 -29.950
O 218.707 19.323 -3.609
O 48.408 1.188 -30.397
O 66.686 5.737 -27.630
O 189.365 0.903 -10.371
O 222.850 30.149 -31.329
O 72.094 12.440 -6.334
O 192.155 18.153 -16.180
O 225.641 19.262 -31.243
O 189.257 4.129 -6.979
O 217.067 10.725 -19.358
O 224.065 14.361 -14.848
O 227.710 4.012 -4.709
O 222.842 1.632 -24.389
O 235.178 14.957 -13.983
O 199.934 22.665 -30.706
O 50.152 19.707 -28.427
O 200.447 29.431 -0.957
O 215.681 2.041 -25.882
O 65.838 5.353 -11.275
O 207.078 6.667 -17.565
O 85.718 10.397 -11.001
O 53.730 22.939 -16.586
O 237.125 4.681 -15.918
O 81.822 3.670 -21.547
O 205.193 27.430 -19.265
O 54.567 31.059 -6.347
O 46.153 14.798 -12.296
O 193.256 16.994 -19.062
O 60.634 28.118 -10.430
O 203.655 31.311 -1.404
O 46.897 1.923 -7.159
O 221.905 3.612 -22.596
O 228.531 19.357 -25.558
O 225.089 15.896 -12.290
O 70.016 1.758 -3.999
O 227.610 11.478 -27.793
O 81.692 6.466 -1.535
O 78.118 16.673 -9.581
O 223.090 18.245 -26.532
O 207.596 27.672 -0.437
O 49.311 29.697 -5.384
O 74.458 20.020 -26.605
O 226.467 31.278 -30.767
O 77.841 6.144 -2.008
O 217.824 29.761 -26.407
O 57.697 19.518 -20.114
O 232.176 21.853 -1.088
O 222.729 23.850 -30.855
O 202.280 8.435 -0.757
O 69.457 25.287 -22.080
O 205.933 25.369 -1.413
O 213.515 22.662 -20.815
O 215.646 25.745 -5.126
O 68.851 29.784 -3.298
O 231.894 25.573 -27.541
O 225.245 29.600 -27.579
O 198.016 15.577 -12.135
O 232.017 3.732 -24.205
O 203.077 16.465 -24.186
O 57.040 0.105 -26.654
O 80.926 23.124 -21.412
O 200.031 4.872 -27.254
O 189.007 15.320 -15.487
O 62.311 6.362 -27.610
O 55.265 11.520 -25.317
O 229.733 7.599 -21.299
O 196.191 2.615 -15.066
O 207.132 11.076 -10.092
O 222.470 13.995 -1.871
O 236.629 16.259 -23.161
O 227.316 8.807 -31.333
O 72.741 10.771 -29.356
O 48.858 13.319 -3.079
O 64.990 2.266 -12.474
O 192.945 28.146 -10.643
O 78.298 19.586 -10.623
O 71.704 0.804 -6.185
O 223.328 30.708 -19.350
O 227.636 19.219 -17.108
O 221.048 13.190 -7.672
O 205.500 20.089 -8.143
O 192.091 20.236 -23.606
O 65.346 27.332 -28.797
O 211.827 3.330 -13.567
O 235.022 1.319 -5.465
O 215.037 27.486 -0.230
O 186.957 25.306 -4.078
O 206.402 21.437 -26.765
O 227.455 2.114 -29.497
O 52.047 18.759 -18.038
O 236.468 5.130 -11.971
O 196.737 11.970 -1.237
O 209.289 2.191 -3.530
O 80.205 6.403 -6.581
O 75.886 26.657 -5.495
O 206.122 17.143 -7.897
O 62.484 14.931 -18.718
O 193.940 28.411 -19.932
O 214.533 19.903 -6.261
O 222.714 18.848 -23.413
O 201.468 12.667 -10.469
O 70.663 25.028 -26.145
O 66.521 31.312 -20.858
O 232.850 24.958 -3.101
O 52.565 13.729 -29.513
O 218.782 6.374 -5.655
O 202.062 25.064 -28.778
O 57.564 6.353 -12.863
O 46.132 12.148 -13.552
O 58.278 28.082 -17.381
O 64.345 18.209 -17.517
O 50.510 4.020 -9.217
O 79.360 19.136 -22.323
O 208.638 24.102 -23.550
O 55.715 1.498 -9.972
O 197.125 25.288 -26.548
O 210.185 30.592 -3.145
O 235.451 30.428 -14.651
O 231.069 14.286 -27.312
O 49.270 20.007 -5.545
O 216.734 18.622 -0.150
O 74.180 20.776 -6.228
O 193.282 2.060 -7.975
O 195.349 30.239 -30.780
O 69.580 16.882 -21.757
O 67.516 2.478 -16.044
O 190.493 5.860 -23.265
O 73.711 11.723 -14.537
O 223.280 31.334 -7.865
O 213.907 18.623 -3.744
O 194.345 23.584 -10.103
O 202.403 23.687 -31.121
O 88.982 3.536 -26.314
O 51.991 9.965 -13.802
O 63.704 20.757 -26.133
O 226.123 25.641 -16.466
O 47.960 6.803 -21.494
O 200.271 1.515 -15.215
O 192.887 0.265 -20.294
O 194.709 4.546 -7.341
O 189.202 29.391 -14.425
O 216.537 4.829 -24.436
O 61.128 18.233 -4.193
O 225.413 24.217 -0.131
O 188.908 13.974 -4.710
O 70.882 20.801 -1.417
O 63.486 4.550 -16.255
O 199.189 11.421 -14.005
O 74.900 9.916 -8.153
O 213.113 25.219 -6.453
O 208.977 28.592 -11.835
O 62.157 6.353 -8.609
O 188.790 7.860 -5.815
O 78.633 5.963 -9.813
O 222.570 30.759 -11.844
O 237.011 7.005 -2.979
O 220.084 23.962 -2.115
O 222.828 16.287 -11.050
O 185.906 31.157 -5.298
O 208.480 29.289 -6.648
O 53.129 7.872 -17.110
O 79.016 10.942 -2.115
O 187.098 11.693 -17.919
O 236.791 13.479 -10.170
O 69.401 1.332 -13.007
O 70.577 28.976 -1.236
O 54.693 13.161 -5.246
O 77.503 3.629 -20.751
O 54.948 7.537 -5.568
O 231.464 6.380 -12.948
O 194.595 20.142 -17.366
O 235.362 20.103 -3.692
O 232.240 20.994 -11.732
O 61.733 24.866 -4.655
O 200.845 24.991 -9.231
O 76.682 20.206 -5.099
O 198.168 26.814 -16.784
O 230.399 27.573 -30.418
O 215.773 9.917 -24.390
O 206.294 15.117 -26.957
O 232.633 10.972 -4.748
O 52.648 2.916 -24.205
O 64.509 21.931 -19.061
O 202.519 1.730 -16.675
O 229.977 23.231 -21.498
O 233.336 0.397 -10.713
O 204.515 22.745 -29.985
O 215.175 6.935 -16.349
O 70.226 12.719 -22.050
O 189.311 23.771 -4.473
O 231.154 9.603 -8.766
O 237.442 26.023 -18.770
O 220.889 21.297 -1.377
O 76.762 14.088 -27.584
O 72.126 9.212 -3.789
O 75.398 20.266 -30.290
O 57.093 29.807 -19.555
O 196.221 19.267 -11.794
O 215.357 6.617 -0.593
O 81.408 18.842 -28.608
O 57.831 11.148 -12.163
O 201.287 6.103 -18.595
O 237.070 8.561 -29.429
O 200.968 10.469 -24.603
O 67.622 5.536 -9.161
O 82.243 5.197 -29.777
O 58.205 25.540 -18.328
O 198.462 3.344 -5.044
O 65.175 19.844 -21.250
O 225.622 1.386 -23.261
O 51.589 25.551 -20.597
O 191.886 26.600 -2.653
O 207.220 20.037 -4.480
O 45.678 13.322 -16.093
O 213.617 0.407 -2.241
O 202.435 28.824 -3.826
O 188.568 22.990 -23.599
O 217.953 14.132 -7.522
O 232.512 5.392 -9.385
O 205.665 10.835 -7.659
O 48.950 21.712 -16.925
O 57.209 15.780 -26.563
O 55.490 4.203 -13.486
O 55.521 20.468 -18.973
O 227.152 4.092 -25.945
O 58.852 5.539 -22.126
O 58.543 30.631 -4.504
O 190.918 12.166 -5.822
O 235.230 25.850 -25.027
O 218.271 1.932 -12.865
O 83.848 12.298 -10.242
O 72.100 26.107 -28.112
O 226.954 22.185 -4.370
O 189.232 12.920 -13.805
O 206.601 31.436 -6.611
O 81.811 7.644 -27.874
O 52.440 9.142 -25.332
O 86.258 6.446 -17.762
O 190.332 29.693 -10.570
O 212.103 19.242 -30.260
O 189.055 11.198 -10.513
O 204.409 24.006 -17.829
O 47.891 11.383 -20.984
O 196.244 3.611 -11.387
O 71.870 17.650 -10.817
O 212.282 2.942 -26.282
O 220.184 25.129 -18.939
O 224.626 26.382 -2.386
O 47.724 3.571 -13.285
O 60.347 4.536 -9.174
O 65.095 12.140 -26.746
O 68.427 19.251 -18.554
O 77.805 29.374 -4.893
O 83.640 3.156 -11.174
O 81.660 30.048 -4.382
O 199.605 23.280 -17.902
O 53.402 28.760 -8.989
O 49.671 27.424 -1.321
O 222.486 26.871 -26.722
O 69.389 18.557 -31.435
O 74.765 4.015 -19.619
O 185.867 31.357 -8.670
O 194.781 26.849 -8.291
O 54.599 17.920 -30.909
O 81.207 20.484 -20.924
O 210.482 9.829 -23.104
O 232.045 15.872 -19.280
O 210.491 7.145 -20.235
O 71.173 10.928 -15.590
O 185.733 22.972 -4.055
O 223.190 27.077 -30.797
O 223.605 4.166 -11.893
O 233.249 30.717 -16.393
O 215.793 5.212 -9.641
O 56.883 25.451 -12.167
O 222.735 6.067 -4.930
O 205.275 14.670 -24.243
O 64.422 18.511 -23.782
O 191.268 0.053 -18.081
O 220.606 30.085 -15.777
O 77.749 25.134 -27.884
O 219.240 10.066 -22.589
O 230.013 4.816 -10.970
O 47.696 23.101 -20.392
O 226.713 4.629 -29.847
O 195.621 26.208 -19.775
O 206.417 17.407 -17.044
O 207.026 6.875 -6.766
O 79.911 25.214 -22.916
O 201.916 18.328 -9.129
O 214.861 23.552 -15.712
O 202.106 2.187 -11.748
O 210.349 0.567 -9.088
O 73.983 29.964 -3.823
O 75.644 17.449 -5.945
O 230.569 6.384 -29.147
O 72.620 0.822 -3.130
O 75.560 0.609 -24.872
O 57.547 2.514 -2.597
O 46.285 4.308 -29.904
O 68.977 5.011 -14.865
O 55.782 30.795 -3.790
O 193.899 12.245 -28.209
O 76.378 9.009 -27.359
O 211.966 6.308 -22.363
O 227.800 24.142 -9.532
O 229.511 23.294 -7.468
O 227.462 22.361 -0.755
O 85.532 6.904 -5.527
O 210.604 12.865 -30.541
O 206.396 6.732 -13.591
O 60.352 9.145 -8.014
O 72.476 20.476 -18.967
O 81.830 9.393 -17.605
O 79.946 0.501 -15.303
O 66.410 9.772 -7.362
O 216.635 19.794 -18.874
O 48.508 10.350 -11.350
O 199.009 17.953 -13.507
O 73.068 16.197 -6.504
O 72.037 2.200 -13.293
O 61.482 13.880 -14.810
O 224.968 8.706 -13.852
O 202.360 20.585 -12.501
O 46.124 17.804 -7.764
O 55.837 13.414 -22.881
O 217.815 8.181 -8.243
O 81.165 17.438 -19.300
O 202.650 12.212 -15.317
O 75.338 14.331 -18.570
O 209.536 6.576 -16.362
O 51.921 23.243 -19.156
O 83.247 23.578 -11.915
O 54.836 10.192 -17.739
O 207.859 21.261 -20.516
O 194.518 21.644 -19.817
O 194.927 17.090 -9.105
O 193.642 10.911 -23.850
O 219.223 20.551 -21.098
O 45.703 24.241 -28.861
O 67.967 22.910 -21.848
O 56.044 29.534 -9.612
O 227.348 22.110 -29.388
O 215.002 11.979 -26.270
O 217.447 12.205 -1.244
O 67.539 23.233 -9.461
O 193.154 19.426 -20.862
O 213.950 7.181 -9.493
O 234.930 16.512 -20.970
O 232.038 29.681 -30.074
O 188.323 1.677 -16.578
O 66.830 25.465 -30.252
O 65.058 29.063 -19.408
O 230.431 17.711 -24.983
O 231.279 9.591 -14.431
O 72.917 16.373 -19.583
O 198.581 1.085 -17.542
O 57.384 19.216 -26.520
O 223.577 22.192 -14.897
O 227.349 9.519 -12.852
O 47.528 20.582 -24.347
O 82.051 19.152 -13.454
O 78.166 24.039 -24.892
O 221.827 17.324 -0.779
O 188.250 26.919 -23.204
O 189.495 16.253 -1.046
O 83.454 19.176 -22.284
O 205.120 3.889 -31.329
O 69.289 26.544 -10.589
O 83.421 9.908 -24.595
O 59.320 10.776 -5.127
O 216.926 23.516 -7.960
O 210.151 2.864 -7.918
O 77.004 15.377 -24.939
O 78.864 24.011 -4.837
O 48.493 0.679 -12.212
O 86.636 4.738 -20.614
O 190.086 29.603 -21.399
O 83.438 26.195 -21.844
O 204.566 30.168 -11.353
O 228.973 14.678 -28.946
O 66.447 2.642 -29.363
O 81.433 1.491 -27.191
O 83.858 17.547 -15.965
O 56.622 4.185 -26.052
O 194.804 13.141 -7.709
O 60.267 11.089 -13.689
O 49.197 26.953 -3.887
O 77.479 10.895 -24.147
O 222.134 19.006 -17.167
O 74.246 15.774 -15.171
O 69.158 12.201 -28.839
O 209.370 3.122 -20.100
O 87.263 2.018 -25.035
O 81.187 19.701 -4.728
O 200.325 20.992 -16.035
O 76.707 5.926 -18.136
O 198.724 17.734 -21.044
O 226.024 0.937 -27.574
O 83.481 26.836 -17.373
O 186.840 21.233 -2.014
O 192.455 28.517 -17.577
O 230.616 4.602 -3.045
O 67.891 15.203 -20.199
O 213.258 28.008 -15.057
O 186.555 9.908 -27.753
O 200.202 26.919 -7.345
O 213.637 21.105 -0.016
O 228.717 16.070 -1.341
O 66.634 31.253 -15.966
O 60.339 15.527 -2.156
O 223.749 21.203 -0.455
O 236.377 22.584 -4.782
O 58.246 2.849 -11.375
O 48.506 29.482 -17.009
O 62.540 13.854 -0.656
O 218.916 24.334 -30.958
O 221.420 23.490 -23.494
O 87.136 3.100 -5.827
O 65.161 11.429 -5.246
O 237.218 16.834 -10.242
O 228.057 21.529 -10.468
O 214.535 11.055 -20.925
O 78.078 17.908 -25.450
O 221.611 7.103 -15.428
O 197.814 9.627 -27.740
O 231.909 20.950 -29.875
O 220.678 0.370 -3.694
O 52.715 4.336 -14.144
O 62.053 29.645 -8.776
O 74.864 4.249 -27.373
O 52.781 17.163 -5.249
O 49.919 24.200 -26.545
O 51.502 11.102 -18.081
O 195.622 29.119 -9.862
O 78.341 5.554 -15.916
O 189.282 11.996 -22.802
O 82.237 13.282 -3.923
O 189.225 10.310 -30.419
O 218.830 3.080 -16.832
O 229.406 2.211 -24.373
O 188.526 29.988 -24.043
O 224.110 20.788 -17.710
O 187.621 1.321 -29.276
O 55.646 22.359 -23.765
O 64.188 21.596 -12.723
O 85.250 13.604 -14.345
O 199.422 18.555 -25.756
O 226.285 9.295 -23.361
O 203.282 25.269 -2.108
O 68.397 27.733 -0.495
O 79.509 31.353 -6.217
O 187.689 29.206 -7.881
O 56.431 31.427 -0.988
O 232.173 15.463 -24.164
O 190.137 26.151 -25.055
O 211.202 12.488 -26.343
O 226.310 17.062 -25.654
O 185.032 8.500 -1.016
O 210.504 14.043 -16.347
O 72.162 18.252 -30.885
O 189.053 0.703 -26.407
O 45.642 25.532 -31.357
O 195.488 10.326 -26.799
O 58.707 10.840 -2.171
O 216.855 7.131 -12.026
O 189.008 28.097 -28.958
O 229.174 5.981 -14.914
O 229.527 13.757 -24.311
O 60.097 29.983 -24.186
O 53.096 6.280 -21.634
O 220.517 25.756 -25.030
O 204.202 10.443 -13.897
O 202.484 20.738 -1.004
O 212.178 18.701 -11.929
O 63.179 11.100 -0.296
O 81.801 20.344 -18.202
O 207.621 0.961 -9.589
O 206.371 16.040 -5.316
O 194.222 8.779 -19.901
O 52.417 4.674 -7.096
O 235.798 11.146 -14.495
O 232.101 24.704 -15.310
O 214.381 24.606 -8.700
O 201.261 14.522 -19.315
O 68.697 7.536 -13.663
O 50.928 28.510 -13.670
O 194.369 24.302 -2.014
O 211.348 23.245 -7.005
O 65.287 7.515 -5.264
O 65.497 25.887 -6.147
O 45.546 20.214 -29.254
O 70.967 22.269 -13.664
O 207.720 21.022 -9.460
O 201.550 10.944 -12.618
O 57.480 7.810 -6.543
C 108.462 10.539 -26.042
O 107.496 10.637 -25.407
O 109.427 10.440 -26.678
C 90.155 31.195 -26.705
O 90.439 30.954 -27.804
O 89.871 0.004 -25.607
C 184.070 6.799 -9.662
O 184.189 6.635 -10.804
O 183.951 6.963 -8.520
C 86.530 15.201 -4.725
O 85.380 15.353 -4.749
O 87.680 15.050 -4.702
C 179.819 12.736 -24.558
O 180.778 12.636 -25.203
O 178.860 12.836 -23.913
C 90.175 14.941 -25.541
O 90.276 14.037 -24.820
O 90.074 15.844 -26.262
C 91.237 2.570 -16.279
O 91.491 3.233 -17.196
O 90.982 1.907 -15.362
C 87.638 14.834 -27.914
O 87.424 14.280 -26.917
O 87.852 15.388 -28.910
C 73.260 26.573 -4.293
O 73.001 26.909 -5.373
O 73.519 26.237 -3.214
C 170.173 29.257 -5.853
O 169.372 30.093 -5.919
O 170.975 28.421 -5.787
C 167.942 18.260 -24.927
O 166.814 18.514 -24.837
O 169.071 18.007 -25.017
C 92.739 5.407 -28.836
O 93.348 5.315 -29.819
O 92.129 5.499 -27.853
C 85.680 25.811 -27.899
O 85.870 26.873 -27.474
O 85.489 24.749 -28.325
C 136.380 6.879 -19.593
O 135.780 6.731 -20.574
O 136.981 7.026 -18.611
C 89.374 6.163 -10.747
O 89.042 6.636 -9.741
O 89.706 5.691 -11.753
C 177.360 19.198 -2.432
O 176.207 19.322 -2.475
O 178.512 19.074 -2.390
C 147.933 2.841 -12.197
O 147.287 3.648 -11.672
O 148.580 2.034 -12.723
C 128.893 8.869 -5.737
O 128.791 7.714 -5.705
O 128.995 10.024 -5.769
C 172.691 4.680 -10.110
O 171.949 3.830 -9.842
O 173.433 5.530 -10.378
C 132.619 21.090 -12.307
O 133.609 20.525 -12.519
O 131.628 21.655 -12.095
C 108.748 27.188 -19.346
O 109.050 28.170 -18.808
O 108.445 26.206 -19.885
C 183.183 26.177 -17.469
O 182.359 25.831 -18.209
O 184.006 26.522 -16.729
C 183.012 15.195 -17.357
O 183.047 15.785 -16.359
O 182.977 14.605 -18.355
C 178.787 29.202 -31.201
O 178.151 29.662 -0.623
O 179.424 28.742 -30.347
C 93.064 3.964 -11.367
O 92.519 4.638 -10.597
O 93.610 3.290 -12.138
C 124.440 18.371 -19.296
O 125.461 17.990 -19.694
O 123.420 18.752 -18.898
C 56.157 25.515 -23.636
O 55.104 25.547 -23.150
O 57.209 25.483 -24.122
C 120.972 14.996 -21.758
O 120.926 15.770 -22.622
O 121.018 14.223 -20.894
C 186.243 15.017 -3.671
O 186.713 14.914 -2.615
O 185.774 15.120 -4.727
C 184.635 8.231 -5.631
O 185.187 8.642 -6.564
O 184.082 7.819 -4.697
C 186.366 14.100 -15.936
O 186.073 14.736 -16.862
O 186.659 13.465 -15.011
C 92.634 6.133 -2.052
O 92.016 6.765 -1.300
O 93.252 5.502 -2.804
C 180.763 8.028 -14.916
O 181.707 7.797 -14.283
O 179.819 8.258 -15.550
C 84.960 13.377 -24.677
O 85.513 13.228 -23.668
O 84.407 13.526 -25.686
C 93.270 24.895 -5.044
O 93.511 24.199 -5.941
O 93.029 25.591 -4.148
C 179.568 14.740 -19.374
O 178.929 14.499 -18.436
O 180.207 14.980 -20.311
C 175.226 19.826 -27.144
O 174.826 20.891 -26.922
O 175.627 18.760 -27.365
C 156.434 16.611 -27.762
O 156.823 15.570 -27.429
O 156.046 17.653 -28.095
C 91.239 9.011 -5.006
O 90.807 9.529 -5.950
O 91.670 8.493 -4.063
C 91.681 9.851 -15.354
O 92.095 10.493 -16.226
O 91.266 9.209 -14.482
C 97.294 8.217 -23.513
O 96.935 7.821 -24.542
O 97.654 8.613 -22.483
C 139.647 6.486 -20.098
O 139.128 5.452 -20.168
O 140.167 7.521 -20.027
C 183.916 19.320 -27.891
O 183.849 18.581 -26.999
O 183.984 20.060 -28.782
C 88.077 7.643 -22.220
O 87.728 8.251 -23.145
O 88.426 7.035 -21.296
C 146.880 26.638 -2.990
O 146.273 26.376 -2.037
O 147.487 26.900 -3.943
C 147.548 28.986 -7.418
O 146.448 28.732 -7.686
O 148.648 29.239 -7.150
C 130.353 29.799 -22.672
O 129.634 29.773 -21.762
O 131.072 29.826 -23.583
C 88.032 28.804 -8.222
O 87.811 27.699 -8.495
O 88.254 29.910 -7.948
C 138.089 26.245 -3.339
O 138.761 26.038 -4.262
O 137.418 26.452 -2.416
C 158.174 3.081 -4.266
O 158.892 2.178 -4.138
O 157.456 3.983 -4.393
C 98.566 29.030 -4.998
O 97.944 29.547 -4.166
O 99.187 28.513 -5.830
C 183.201 30.578 -12.048
O 184.212 30.012 -12.015
O 182.189 31.145 -12.080
C 103.465 17.980 -2.579
O 103.447 17.724 -3.710
O 103.483 18.235 -1.448
C 134.323 30.543 -10.572
O 134.275 30.595 -9.414
O 134.372 30.491 -11.730
C 181.797 29.622 -2.267
O 181.107 29.827 -1.357
O 182.488 29.417 -3.176
C 99.903 16.145 -12.700
O 99.605 15.234 -12.046
O 100.201 17.055 -13.354
C 92.893 18.132 -3.535
O 92.029 18.594 -2.914
O 93.757 17.670 -4.155
C 183.950 18.415 -20.452
O 184.229 18.955 -21.440
O 183.671 17.875 -19.464
C 177.810 3.289 -5.406
O 177.482 4.181 -4.740
O 178.137 2.397 -6.072
C 88.549 18.382 -20.470
O 88.084 19.362 -20.060
O 89.015 17.402 -20.881
C 176.148 7.670 -24.558
O 175.472 7.467 -25.479
O 176.823 7.873 -23.637
C 152.982 8.610 -13.321
O 152.571 7.525 -13.326
O 153.393 9.695 -13.317
C 179.624 14.573 -7.414
O 180.776 14.612 -7.543
O 178.471 14.535 -7.286
C 173.595 1.516 -3.836
O 173.552 0.426 -3.441
O 173.637 2.605 -4.232
C 179.070 2.156 -22.996
O 178.373 2.660 -23.775
O 179.766 1.652 -22.218
C 91.718 29.765 -15.490
O 90.808 29.858 -16.203
O 92.629 29.673 -14.777
C 183.679 13.686 -28.773
O 184.306 12.925 -29.385
O 183.051 14.447 -28.162
C 95.710 15.277 -3.560
O 96.204 15.877 -2.699
O 95.215 14.677 -4.421
C 174.490 28.114 -3.968
O 175.611 28.352 -3.790
O 173.368 27.877 -4.146
C 94.489 2.317 -4.642
O 94.057 2.502 -3.582
O 94.921 2.131 -5.702
C 208.113 17.461 -10.673
O 209.226 17.165 -10.804
O 206.999 17.758 -10.543
C 103.887 4.749 -17.047
O 104.618 4.776 -16.146
O 103.156 4.721 -17.947
C 52.877 8.278 -3.469
O 53.469 7.752 -2.622
O 52.285 8.804 -4.316
C 124.935 4.507 -12.569
O 124.196 5.396 -12.464
O 125.673 3.619 -12.673
C 86.311 8.289 -0.498
O 87.169 9.064 -0.588
O 85.453 7.514 -0.407
C 152.373 2.735 -12.163
O 153.108 2.456 -11.309
O 151.639 3.014 -13.016
C 99.225 10.732 -6.299
O 99.383 9.670 -6.738
O 99.068 11.794 -5.860
C 186.279 18.779 -3.608
O 187.071 18.205 -2.983
O 185.488 19.352 -4.232
C 183.063 25.821 -3.091
O 182.426 25.445 -3.984
O 183.700 26.197 -2.197
C 184.583 13.598 -7.727
O 184.445 12.931 -6.788
O 184.721 14.265 -8.666
C 206.233 13.734 -13.377
O 207.219 14.221 -13.743
O 205.246 13.247 -13.010
C 176.960 19.304 -17.786
O 178.109 19.368 -17.928
O 175.810 19.241 -17.644
C 116.206 20.207 -21.879
O 115.711 19.929 -20.867
O 116.700 20.485 -22.890
C 89.563 2.110 -19.031
O 89.909 2.786 -19.908
O 89.216 1.434 -18.155
C 130.310 6.457 -30.092
O 130.073 7.457 -30.629
O 130.547 5.456 -29.556
C 140.250 19.870 -20.913
O 140.702 18.808 -21.027
O 139.798 20.932 -20.798
C 190.868 6.819 -13.615
O 190.869 6.900 -12.458
O 190.867 6.737 -14.772
C 183.028 3.275 -19.356
O 182.308 2.605 -19.971
O 183.748 3.945 -18.740
C 103.886 21.451 -23.165
O 104.809 22.121 -23.378
O 102.963 20.782 -22.951
C 121.478 19.202 -6.463
O 121.746 18.361 -7.216
O 121.211 20.042 -5.709
C 86.914 23.605 -31.079
O 86.083 22.797 -31.122
O 87.746 24.413 -31.035
C 111.580 29.220 -5.497
O 111.806 28.372 -6.255
O 111.353 30.068 -4.739
C 183.099 9.840 -25.638
O 182.905 8.968 -24.898
O 183.292 10.712 -26.378
C 142.254 28.258 -17.993
O 142.835 28.764 -18.860
O 141.672 27.752 -17.127
C 222.479 31.290 -27.828
O 222.816 30.961 -26.768
O 222.141 0.187 -28.887
C 137.733 4.951 -23.076
O 136.762 4.379 -22.799
O 138.703 5.523 -23.353
C 157.018 20.983 -7.152
O 157.177 19.854 -6.937
O 156.859 22.112 -7.366
C 93.951 2.091 -26.292
O 93.110 2.146 -25.495
O 94.792 2.036 -27.089
C 87.828 19.809 -16.574
O 88.269 20.784 -16.127
O 87.387 18.834 -17.021
C 171.631 21.719 -27.772
O 170.821 21.237 -27.096
O 172.440 22.201 -28.448
C 180.185 24.851 -1.451
O 179.039 24.978 -1.576
O 181.331 24.723 -1.326
C 154.987 5.416 -28.241
O 155.622 4.727 -28.924
O 154.352 6.106 -27.558
C 180.726 15.641 -4.461
O 181.179 14.732 -3.899
O 180.273 16.549 -5.022
C 93.407 4.766 -22.313
O 92.461 5.045 -21.701
O 94.352 4.488 -22.925
C 119.558 10.668 -31.335
O 119.208 10.918 -30.258
O 119.908 10.419 -0.980
C 102.522 8.260 -20.559
O 103.057 8.272 -19.530
O 101.988 8.249 -21.589
C 184.476 2.515 -24.917
O 184.346 1.378 -25.110
O 184.605 3.651 -24.723
C 143.139 15.614 -9.106
O 143.315 15.251 -8.019
O 142.964 15.977 -10.194
C 178.922 13.392 -11.727
O 178.755 14.532 -11.597
O 179.089 12.251 -11.857
C 170.992 2.243 -29.102
O 171.956 1.831 -29.598
O 170.028 2.656 -28.606
C 89.872 16.864 -12.995
O 90.342 16.018 -13.635
O 89.402 17.710 -12.356
C 181.158 17.250 -0.896
O 180.839 17.181 -2.009
O 181.478 17.320 -31.215
C 180.395 5.747 -2.436
O 180.332 6.291 -1.413
O 180.458 5.203 -3.459
C 169.374 2.329 -13.983
O 168.431 2.483 -13.326
O 170.318 2.175 -14.640
C 64.689 20.549 -1.846
O 64.829 21.695 -1.966
O 64.549 19.404 -1.727
C 84.512 21.070 -27.082
O 83.680 20.989 -26.277
O 85.344 21.152 -27.886
C 184.854 10.563 -11.304
O 184.552 10.243 -10.231
O 185.157 10.884 -12.377
C 146.064 29.297 -19.790
O 145.723 30.395 -19.640
O 146.406 28.199 -19.940
C 180.065 1.925 -1.698
O 180.220 2.535 -0.724
O 179.910 1.315 -2.673
C 171.582 4.851 -27.407
O 171.949 5.004 -28.497
O 171.216 4.698 -26.317
C 117.495 30.279 -14.820
O 117.402 30.923 -13.860
O 117.587 29.636 -15.781
C 161.014 21.355 -19.213
O 160.553 21.772 -18.234
O 161.475 20.938 -20.192
C 116.804 17.462 -23.551
O 117.774 17.617 -22.934
O 115.834 17.307 -24.168
C 180.049 15.796 -27.388
O 180.045 15.544 -28.520
O 180.053 16.047 -26.255
C 91.870 13.826 -3.854
O 91.701 13.138 -4.773
O 92.038 14.514 -2.936
C 160.000 26.928 -11.394
O 159.187 26.832 -12.215
O 160.814 27.023 -10.572
C 130.723 23.803 -18.543
O 130.464 24.777 -19.117
O 130.982 22.829 -17.969
C 181.722 11.944 -14.922
O 182.115 10.974 -14.421
O 181.329 12.913 -15.424
C 182.903 22.432 -5.475
O 182.563 22.754 -4.414
O 183.243 22.110 -6.536
C 182.259 23.072 -26.118
O 182.853 23.992 -25.736
O 181.665 22.151 -26.500
C 184.963 16.013 -24.201
O 185.919 15.766 -24.808
O 184.006 16.260 -23.593
C 141.418 30.606 -6.210
O 140.283 30.517 -6.430
O 142.554 30.695 -5.989
C 101.987 1.880 -14.866
O 102.507 2.917 -14.863
O 101.466 0.843 -14.868
C 113.302 30.419 -0.408
O 112.288 30.529 -31.287
O 114.316 30.310 -0.961
C 100.422 2.794 -28.989
O 99.794 1.871 -28.675
O 101.049 3.718 -29.304
C 136.601 24.450 -17.326
O 136.379 25.407 -16.708
O 136.823 23.494 -17.944
C 183.726 5.848 -22.442
O 182.925 5.030 -22.255
O 184.528 6.666 -22.629
C 159.553 10.053 -23.895
O 159.138 9.218 -24.586
O 159.967 10.887 -23.204
C 177.053 23.714 -15.217
O 177.985 23.046 -15.389
O 176.121 24.383 -15.044
C 87.361 0.456 -11.846
O 87.726 1.555 -11.782
O 86.996 30.789 -11.910
C 182.658 10.400 -22.166
O 183.288 9.871 -21.347
O 182.029 10.928 -22.985
C 100.139 20.113 -18.168
O 99.333 20.863 -18.533
O 100.945 19.364 -17.802
C 162.731 23.385 -24.269
O 162.613 22.475 -23.559
O 162.849 24.295 -24.979
C 88.487 3.333 -30.510
O 89.354 2.719 -30.974
O 87.619 3.947 -30.045
C 107.299 7.264 -15.632
O 106.656 6.810 -14.780
O 107.942 7.718 -16.485
C 149.599 19.609 -25.801
O 150.164 19.979 -26.743
O 149.033 19.239 -24.858
C 52.591 30.657 -11.546
O 53.677 30.342 -11.802
O 51.504 30.972 -11.290
C 85.902 18.069 -29.792
O 86.863 18.622 -30.131
O 84.940 17.516 -29.452
C 88.515 11.341 -6.885
O 87.563 10.743 -7.168
O 89.468 11.939 -6.603
C 133.633 30.411 -28.013
O 132.952 30.934 -28.793
O 134.314 29.888 -27.233
C 89.904 28.610 -12.468
O 89.872 28.336 -13.595
O 89.935 28.884 -11.341
C 105.344 1.324 -17.067
O 106.456 1.645 -17.001
O 104.231 1.003 -17.133
C 183.259 22.352 -19.794
O 182.817 23.408 -19.608
O 183.702 21.296 -19.981
C 134.983 19.844 -19.601
O 134.935 20.287 -18.529
O 135.031 19.401 -20.672
C 177.939 5.843 -20.452
O 178.122 6.049 -19.325
O 177.757 5.638 -21.579
C 180.874 8.256 -30.423
O 180.597 7.664 -29.465
O 181.152 8.848 -31.381
C 159.849 13.147 -13.949
O 160.544 14.020 -14.267
O 159.154 12.275 -13.631
C 153.779 7.796 -25.054
O 154.902 7.534 -24.928
O 152.656 8.058 -25.180
C 163.356 19.451 -27.144
O 164.444 19.180 -26.846
O 162.268 19.721 -27.441
C 184.268 28.935 -24.799
O 183.183 28.865 -24.394
O 185.352 29.005 -25.203
C 105.405 4.270 -19.532
O 105.483 3.178 -19.148
O 105.326 5.362 -19.917
C 134.041 29.856 -2.419
O 134.089 30.879 -1.875
O 133.993 28.832 -2.963
C 138.157 17.001 -27.057
O 137.087 16.890 -27.492
O 139.227 17.112 -26.622
C 154.388 8.152 -7.448
O 153.697 8.866 -8.046
O 155.079 7.437 -6.850
C 152.558 27.928 -25.660
O 152.273 28.376 -26.691
O 152.843 27.480 -24.628
C 151.599 16.183 -24.246
O 152.615 16.487 -24.715
O 150.583 15.878 -23.776
C 153.841 19.632 -2.268
O 153.363 20.665 -2.492
O 154.319 18.599 -2.044
C 140.765 15.232 -1.009
O 141.082 16.243 -1.480
O 140.448 14.221 -0.537
C 183.799 26.263 -11.228
O 184.553 26.245 -12.109
O 183.044 26.282 -10.347
C 57.236 30.398 -12.616
O 56.419 31.205 -12.452
O 58.052 29.590 -12.780
C 149.006 5.192 -20.428
O 148.989 4.399 -19.582
O 149.023 5.986 -21.274
C 86.737 14.258 -0.923
O 86.350 13.624 -0.032
O 87.123 14.893 -1.814
C 91.882 28.420 -2.738
O 92.995 28.592 -3.017
O 90.769 28.248 -2.460
C 50.634 1.687 -20.284
O 49.849 0.853 -20.462
O 51.420 2.522 -20.105
C 119.710 13.072 -27.115
O 120.177 12.215 -26.487
O 119.243 13.928 -27.743
C 175.936 25.899 -23.869
O 176.599 26.422 -24.665
O 175.272 25.377 -23.073
C 186.923 12.428 -0.162
O 186.984 12.399 -30.437
O 186.861 12.457 -1.320
C 147.849 16.912 -23.021
O 148.567 16.690 -22.137
O 147.131 17.133 -23.905
C 223.937 17.897 -20.898
O 223.083 17.986 -20.118
O 224.791 17.808 -21.678
C 125.177 24.269 -7.283
O 125.867 25.050 -7.793
O 124.487 23.489 -6.772
C 182.816 5.078 -0.655
O 182.735 4.030 -1.146
O 182.897 6.126 -0.165
C 78.819 3.145 -24.704
O 79.534 2.957 -23.810
O 78.105 3.334 -25.599
C 88.937 30.609 -30.370
O 88.098 31.264 -29.910
O 89.776 29.953 -30.831
C 167.058 21.314 -27.694
O 167.305 21.203 -26.566
O 166.812 21.425 -28.822
C 137.293 27.864 -6.448
O 137.289 28.825 -5.798
O 137.297 26.902 -7.097
C 172.757 18.958 -24.590
O 172.530 18.744 -25.707
O 172.984 19.172 -23.473
C 193.316 9.435 -11.104
O 193.436 8.281 -11.100
O 193.195 10.589 -11.109
C 144.039 2.483 -28.520
O 144.577 1.706 -29.193
O 143.501 3.259 -27.847
C 116.710 15.418 -1.947
O 115.638 15.630 -1.559
O 117.782 15.205 -2.336
C 174.178 17.573 -4.115
O 175.025 17.334 -4.871
O 173.331 17.812 -3.360
C 148.013 6.352 -13.059
O 149.017 6.590 -12.530
O 147.009 6.115 -13.589
C 45.935 14.527 -19.542
O 237.172 14.742 -20.339
O 46.750 14.313 -18.744
C 182.088 28.424 -7.224
O 180.937 28.418 -7.367
O 183.239 28.431 -7.081
C 85.928 16.509 -24.587
O 85.866 16.692 -25.730
O 85.991 16.326 -23.443
C 182.788 31.124 -16.690
O 183.886 30.910 -16.383
O 181.690 31.338 -16.998
C 159.912 18.215 -3.931
O 160.232 19.024 -3.164
O 159.593 17.405 -4.698
C 90.222 18.883 -25.489
O 91.286 18.905 -25.029
O 89.157 18.860 -25.949
C 112.007 5.383 -17.000
O 111.198 5.185 -16.193
O 112.817 5.581 -17.806
C 145.679 17.363 -3.508
O 144.879 16.627 -3.104
O 146.479 18.100 -3.911
C 133.573 25.078 -12.967
O 133.702 25.839 -12.101
O 133.444 24.318 -13.833
C 103.711 6.904 -10.683
O 103.650 5.780 -10.964
O 103.772 8.028 -10.403
C 87.860 20.587 -2.210
O 88.896 20.995 -1.885
O 86.823 20.180 -2.535
C 154.515 5.901 -3.090
O 153.609 5.333 -3.539
O 155.421 6.469 -2.641
C 144.161 6.446 -29.194
O 144.993 5.665 -29.405
O 143.330 7.227 -28.983
C 94.118 27.147 -10.579
O 94.746 27.785 -9.841
O 93.490 26.509 -11.317
C 88.695 31.397 -4.584
O 88.321 30.354 -4.242
O 89.069 1.009 -4.926
C 89.882 23.335 -26.619
O 89.387 22.996 -27.612
O 90.376 23.675 -25.626
C 113.906 10.305 -27.261
O 113.292 10.571 -26.313
O 114.519 10.039 -28.208
C 180.259 23.317 -21.941
O 180.949 22.387 -21.873
O 179.570 24.247 -22.008
C 222.526 11.082 -0.803
O 223.130 11.124 -31.245
O 221.923 11.039 -1.793
C 210.097 0.917 -13.303
O 209.662 1.642 -12.508
O 210.531 0.191 -14.097
C 155.894 13.287 -10.246
O 156.384 13.688 -11.218
O 155.403 12.885 -9.275
C 169.595 18.763 -13.146
O 168.519 18.406 -13.391
O 170.671 19.120 -12.901
C 138.062 0.010 -8.464
O 137.446 30.472 -8.309
O 138.679 0.981 -8.620
C 130.971 6.755 -2.700
O 131.271 7.420 -3.602
O 130.670 6.091 -1.798
C 83.851 22.404 -23.972
O 82.805 21.935 -23.795
O 84.897 22.872 -24.149
C 184.469 25.828 -6.646
O 183.915 25.230 -7.471
O 185.022 26.427 -5.820
C 117.290 15.972 -7.685
O 116.979 14.987 -7.156
O 117.601 16.956 -8.213
C 147.212 22.689 -4.343
O 146.246 23.112 -3.860
O 148.178 22.266 -4.826
C 182.199 30.219 -21.453
O 182.946 31.003 -21.868
O 181.451 29.435 -21.038
C 116.825 25.748 -14.932
O 117.348 26.343 -14.085
O 116.302 25.152 -15.779
C 174.784 29.018 -20.774
O 174.669 29.449 -19.703
O 174.900 28.588 -21.845
C 88.630 10.020 -13.598
O 88.458 9.201 -12.795
O 88.802 10.838 -14.402
C 128.523 20.909 -17.809
O 127.940 21.852 -18.149
O 129.107 19.966 -17.469
C 92.793 19.304 -21.801
O 92.202 18.423 -22.270
O 93.385 20.185 -21.332
C 133.815 4.083 -12.125
O 133.540 5.032 -12.733
O 134.091 3.135 -11.517
C 185.557 1.800 -13.505
O 185.748 2.327 -14.520
O 185.367 1.274 -12.489
C 187.061 25.844 -14.446
O 187.175 26.704 -15.215
O 186.947 24.983 -13.677
C 143.648 23.697 -25.267
O 143.805 24.431 -24.383
O 143.491 22.963 -26.151
C 143.141 29.089 -28.893
O 143.922 28.249 -29.068
O 142.360 29.928 -28.718
C 91.248 6.096 -14.498
O 90.258 5.877 -15.062
O 92.237 6.316 -13.933
C 114.396 3.544 -29.226
O 114.968 4.531 -29.438
O 113.823 2.558 -29.014
C 109.820 10.253 -19.731
O 109.285 9.515 -19.014
O 110.356 10.991 -20.448
C 112.621 24.869 -2.501
O 112.675 24.403 -3.561
O 112.566 25.336 -1.440
C 187.251 4.938 -9.817
O 187.449 5.554 -8.854
O 187.054 4.322 -10.780
C 116.144 14.463 -10.898
O 116.583 14.275 -11.955
O 115.705 14.651 -9.840
C 181.725 18.199 -23.222
O 180.991 18.001 -22.346
O 182.460 18.397 -24.098
C 145.999 0.321 -23.323
O 146.993 31.301 -22.931
O 145.006 0.774 -23.714
C 145.896 24.822 -18.360
O 145.780 23.898 -19.052
O 146.012 25.745 -17.668
C 87.283 17.762 -7.833
O 86.645 18.194 -6.966
O 87.921 17.331 -8.701
C 97.950 18.255 -1.132
O 97.190 18.592 -0.323
O 98.710 17.917 -1.941
C 164.079 4.700 -29.066
O 163.138 4.067 -29.305
O 165.021 5.334 -28.826
C 142.252 22.788 -21.596
O 142.538 21.790 -22.112
O 141.966 23.786 -21.079
C 94.884 9.336 -16.617
O 94.753 9.568 -17.747
O 95.015 9.105 -15.489
C 182.670 19.354 -8.013
O 181.637 19.875 -8.100
O 183.703 18.833 -7.927
C 177.921 20.313 -29.980
O 178.266 20.187 -28.880
O 177.576 20.439 -31.081
C 170.420 1.762 -25.188
O 169.931 2.391 -24.345
O 170.909 1.132 -26.031
C 157.999 29.974 -11.852
O 158.414 29.407 -10.930
O 157.583 30.542 -12.774
C 236.759 3.894 -22.894
O 237.402 4.859 -22.908
O 236.116 2.928 -22.880
C 88.463 23.859 -5.060
O 89.079 24.655 -5.637
O 87.848 23.063 -4.483
C 89.716 17.896 -30.861
O 89.295 18.055 -0.498
O 90.136 17.737 -29.791
C 183.282 24.001 -14.232
O 182.436 24.443 -13.573
O 184.127 23.558 -14.891
C 182.496 28.570 -29.713
O 182.788 29.186 -28.774
O 182.203 27.954 -30.651
C 175.751 12.526 -4.491
O 175.254 13.145 -3.645
O 176.248 11.907 -5.337
C 138.789 14.619 -23.446
O 138.249 13.919 -22.694
O 139.330 15.318 -24.197
C 142.614 17.947 -18.103
O 143.040 16.944 -17.706
O 142.188 18.951 -18.499
C 87.488 24.585 -17.541
O 86.641 25.200 -18.041
O 88.335 23.970 -17.042
C 96.283 13.419 -26.389
O 96.033 12.289 -26.314
O 96.534 14.550 -26.463
C 173.919 25.180 -9.154
O 174.470 24.446 -9.864
O 173.369 25.914 -8.444
C 158.129 9.008 -1.310
O 157.846 8.650 -0.244
O 158.411 9.365 -2.377
C 80.518 16.618 -14.864
O 80.257 17.665 -15.291
O 80.780 15.572 -14.438
C 88.529 27.953 -16.232
O 88.045 28.976 -15.975
O 89.013 26.931 -16.488
C 183.395 16.615 -12.060
O 183.737 15.855 -12.868
O 183.054 17.374 -11.252
C 90.402 15.331 -18.735
O 90.470 16.040 -17.820
O 90.333 14.622 -19.651
C 127.834 19.677 -1.044
O 126.691 19.485 -1.083
O 128.977 19.870 -1.005
C 91.303 4.926 -6.445
O 91.402 4.111 -7.265
O 91.205 5.741 -5.625
C 94.019 15.169 -11.183
O 93.535 14.223 -11.650
O 94.501 16.115 -10.717
C 135.733 2.098 -29.229
O 135.688 3.108 -28.661
O 135.778 1.088 -29.797
C 154.039 9.608 -22.463
O 154.300 10.449 -23.218
O 153.778 8.767 -21.707
C 182.809 20.971 -2.333
O 182.293 20.155 -2.976
O 183.324 21.788 -1.690
C 102.727 23.453 -4.014
O 102.801 23.627 -5.159
O 102.653 23.279 -2.870
C 180.199 12.403 -29.065
O 179.695 12.090 -28.068
O 180.702 12.715 -30.062
C 159.352 16.648 -20.185
O 159.516 15.935 -21.086
O 159.189 17.361 -19.285
C 87.011 28.538 -2.075
O 86.882 27.843 -2.995
O 87.140 29.233 -1.155
C 184.333 19.326 -15.443
O 183.598 20.215 -15.559
O 185.069 18.436 -15.328
C 151.967 6.149 -17.260
O 152.351 5.500 -16.378
O 151.583 6.798 -18.142
C 149.426 15.957 -1.198
O 149.192 14.821 -1.187
O 149.660 17.093 -1.208
C 90.774 26.963 -18.821
O 91.181 28.048 -18.788
O 90.366 25.877 -18.854
C 88.286 13.409 -21.657
O 88.630 14.468 -21.981
O 87.942 12.350 -21.332
C 180.273 8.072 -21.111
O 181.111 7.304 -20.882
O 179.435 8.841 -21.340
C 165.646 19.869 -17.249
O 166.525 19.952 -16.497
O 164.766 19.787 -18.001
C 181.092 5.071 -24.943
O 181.048 3.949 -25.234
O 181.137 6.193 -24.652
C 106.950 22.880 -16.518
O 107.792 22.127 -16.782
O 106.107 23.632 -16.254
C 178.713 29.649 -5.495
O 179.579 30.155 -4.913
O 177.847 29.143 -6.078
C 157.242 30.511 -4.140
O 157.728 29.866 -3.308
O 156.757 31.156 -4.973
C 86.254 9.572 -28.803
O 85.950 8.476 -28.576
O 86.559 10.668 -29.031
C 109.897 13.236 -14.911
O 109.084 13.482 -14.121
O 110.710 12.990 -15.701
C 177.945 27.228 -15.818
O 178.587 26.334 -16.183
O 177.304 28.123 -15.452
C 141.441 13.099 -5.249
O 141.555 12.141 -5.892
O 141.327 14.057 -4.605
C 105.574 25.900 -26.424
O 105.257 26.624 -25.574
O 105.891 25.177 -27.273
C 178.541 2.317 -18.399
O 177.895 1.669 -19.112
O 179.187 2.964 -17.686
C 159.581 28.891 -19.619
O 160.021 28.551 -20.637
O 159.141 29.232 -18.601
C 119.500 12.989 -11.564
O 118.695 12.450 -10.927
O 120.306 13.529 -12.201
C 128.591 13.591 -18.181
O 128.152 13.423 -17.121
O 129.029 13.759 -19.242
C 127.190 6.535 -2.430
O 127.936 6.120 -1.645
O 126.444 6.949 -3.215
C 180.947 28.614 -17.840
O 182.073 28.721 -17.582
O 179.821 28.506 -18.096
C 88.380 29.308 -19.465
O 88.095 28.201 -19.270
O 88.666 30.415 -19.660
C 177.227 10.908 -27.151
O 177.624 9.846 -26.907
O 176.830 11.970 -27.395
C 91.844 10.470 -23.268
O 92.577 11.332 -23.523
O 91.111 9.608 -23.012
C 181.946 21.385 -30.624
O 182.253 22.231 -29.892
O 181.640 20.540 -31.357
C 166.532 12.143 -31.157
O 165.532 12.182 -30.571
O 167.532 12.104 -0.311
C 183.627 13.708 -1.507
O 183.358 14.833 -1.597
O 183.896 12.583 -1.417
C 186.599 28.570 -21.186
O 186.099 29.240 -21.990
O 187.100 27.900 -20.382
C 144.698 26.337 -21.459
O 145.333 26.717 -22.352
O 144.062 25.958 -20.566
C 129.317 13.360 -24.930
O 128.851 14.260 -24.367
O 129.783 12.460 -25.494
C 84.603 21.964 -5.029
O 84.345 20.887 -5.375
O 84.862 23.041 -4.684
C 88.008 9.607 -3.427
O 88.778 10.451 -3.229
O 87.238 8.762 -3.626
C 195.519 27.328 -23.334
O 195.966 28.049 -22.542
O 195.073 26.608 -24.126
C 86.685 20.384 -23.974
O 85.806 19.951 -24.595
O 87.564 20.817 -23.354
C 217.055 29.643 -7.203
O 217.744 30.335 -7.829
O 216.366 28.950 -6.577
C 91.549 12.255 -12.251
O 90.808 13.147 -12.222
O 92.290 11.363 -12.279
3933
Lattice="31.432 0 0 0 31.432 0 0 0 184.533" Properties=species:S:1:pos:R:3 timestep=36095000
O 228.323 14.177 -21.845
O 56.313 26.456 -8.355
O 84.256 3.872 -8.055
O 188.865 25.855 -18.379
O 71.626 19.898 -21.806
O 74.695 16.865 -22.711
O 207.563 8.705 -7.766
O 88.902 22.204 -17.026
O 219.365 30.988 -11.221
O 189.587 13.606 -3.261
O 228.559 8.277 -26.631
O 189.842 8.335 -25.671
O 222.487 26.429 -3.332
O 194.723 8.496 -24.391
O 90.984 17.923 -13.680
O 81.438 14.263 -16.150
O 80.972 5.549 -7.429
O 80.858 22.021 -18.601
O 221.615 11.459 -31.419
O 69.924 16.903 -2.465
O 209.274 11.168 -4.123
O 200.063 9.095 -11.725
O 51.395 11.806 -27.394
O 188.184 23.901 -26.960
O 206.741 19.412 -25.507
O 197.346 23.189 -28.360
O 94.715 29.754 -18.062
O 201.325 26.346 -21.192
O 80.463 24.712 -18.759
O 86.221 29.932 -31.460
O 53.861 24.562 -16.931
O 207.289 16.865 -12.197
O 207.334 29.897 -10.617
O 62.307 16.326 -2.383
O 55.302 8.579 -11.739
O 216.025 21.219 -25.036
O 191.883 18.657 -15.570
O 214.057 25.929 -2.548
O 96.367 1.311 -16.126
O 200.337 25.968 -23.822
O 89.628 1.797 -6.401
O 63.964 5.820 -8.317
O 60.178 14.069 -9.440
O 216.480 18.930 -14.021
O 71.877 16.619 -10.548
O 227.477 3.506 -12.876
O 79.404 14.986 -25.780
O 194.362 20.901 -11.153
O 97.039 11.498 -18.558
O 55.487 13.804 -5.213
O 207.606 7.011 -1.743
O 53.653 27.023 -21.618
O 198.726 19.348 -25.654
O 223.278 19.282 -9.315
O 208.947 21.401 -10.016
O 88.450 31.058 -23.188
O 218.590 26.198 -23.505
O 88.621 19.488 -22.411
O 211.730 17.584 -9.056
O 202.307 27.078 -7.262
O 59.805 23.569 -21.108
O 52.484 6.686 -19.681
O 88.869 19.027 -15.928
O 229.657 12.742 -12.242
O 52.117 24.611 -22.650
O 208.328 20.904 -20.375
O 215.147 9.849 -11.980
O 200.857 3.610 -21.696
O 89.141 12.683 -25.629
O 219.857 7.793 -8.898
O 69.837 0.482 -18.571
O 190.772 25.970 -22.013
O 225.369 30.133 -4.852
O 204.029 4.089 -31.326
O 64.710 21.142 -26.849
O 87.575 10.463 -12.101
O 75.848 5.275 -19.360
O 192.764 14.516 -24.640
O 77.477 18.368 -15.960
O 83.865 11.340 -28.497
O 77.069 0.084 -7.972
O 209.332 4.612 -16.986
O 66.121 21.697 -16.860
O 226.190 22.086 -13.357
O 221.708 1.322 -7.783
O 189.230 1.952 -17.407
O 226.557 26.062 -10.658
O 57.582 6.421 -2.320
O 93.295 23.995 -24.087
O 73.422 5.795 -8.792
O 86.169 3.860 -10.324
O 205.721 0.733 -20.964
O 92.657 25.825 -21.918
O 54.675 5.344 -14.546
O 195.893 20.159 -25.007
O 207.120 11.470 -21.770
O 219.091 22.896 -28.848
O 94.155 1.585 -7.037
O 50.456 23.934 -5.316
O 207.989 7.937 -20.494
O 91.772 16.366 -7.160
O 98.128 9.281 -20.582
O 203.765 7.986 -21.516
O 61.934 13.823 -29.853
O 202.545 12.774 -8.752
O 87.487 8.169 -5.731
O 208.604 25.496 -17.729
O 189.082 18.990 -27.230
O 229.935 20.976 -23.091
O 67.482 5.016 -23.267
O 90.506 29.614 -5.497
O 76.567 22.607 -30.995
O 77.675 22.723 -5.464
O 232.999 26.282 -16.466
O 79.380 29.380 -0.190
O 58.921 25.091 -1.187
O 205.593 4.180 -6.625
O 225.506 29.427 -17.243
O 228.324 24.965 -21.934
O 75.742 4.767 -24.171
O 66.588 29.795 -29.441
O 227.104 11.202 -5.608
O 57.479 1.482 -12.169
O 188.326 6.666 -3.106
O 53.714 7.885 -1.869
O 86.902 30.058 -2.709
O 225.294 23.042 -19.369
O 210.880 9.813 -17.719
O 215.692 22.184 -22.079
O 200.310 3.077 -12.739
O 209.725 14.835 -28.462
O 232.462 0.769 -26.219
O 63.684 9.183 -3.995
O 51.430 2.365 -17.985
O 200.937 23.512 -25.203
O 230.976 28.024 -27.948
O 56.156 1.362 -20.585
O 230.631 12.866 -21.630
O 67.615 14.908 -4.326
O 204.193 6.477 -16.832
O 54.972 15.542 -25.018
O 58.056 29.052 -2.298
O 80.274 26.274 -26.676
O 68.091 7.460 -7.686
O 51.673 17.630 -10.484
O 67.085 20.442 -25.483
O 193.975 22.679 -1.260
O 93.451 6.752 -26.572
O 217.388 10.696 -21.604
O 56.273 14.119 -28.790
O 57.682 2.704 -29.040
O 228.451 6.627 -19.416
O 227.889 9.633 -3.408
O 49.403 11.277 -16.551
O 90.954 10.931 -28.428
O 193.024 5.242 -10.577
O 91.914 12.257 -18.986
O 80.156 11.269 -25.201
O 61.489 12.035 -27.747
O 233.420 7.656 -18.256
O 88.699 15.764 -16.973
O 232.544 28.484 -10.932
O 72.316 6.285 -0.989
O 220.910 28.481 -2.197
O 217.892 9.239 -6.461
O 74.729 22.595 -9.538
O 87.935 4.501 -22.560
O 216.102 26.308 -22.796
O 225.875 30.776 -11.186
O 92.520 28.011 -17.668
O 231.520 30.672 -0.835
O 50.046 20.246 -1.251
O 233.556 19.974 -16.644
O 203.438 8.091 -8.433
O 72.154 1.756 -6.443
O 202.564 16.738 -24.818
O 62.389 24.248 -13.631
O 191.313 16.265 -26.488
O 96.092 27.572 -27.503
O 62.408 16.613 -28.839
O 63.683 12.333 -20.984
O 50.468 15.089 -9.851
O 220.463 3.348 -9.196
O 202.929 12.547 -11.784
O 223.601 3.224 -13.666
O 54.068 3.416 -3.980
O 57.179 17.298 -26.153
O 217.804 10.511 -15.825
O 219.612 12.220 -1.816
O 50.280 4.652 -8.343
O 63.233 15.170 -16.531
O 192.464 23.470 -3.389
O 81.455 11.219 -3.328
O 96.513 14.519 -16.549
O 63.978 16.366 -4.839
O 69.874 29.882 -25.411
O 223.354 17.949 -18.521
O 203.869 11.610 -29.205
O 72.494 26.247 -6.018
O 91.810 10.686 -9.307
O 215.124 9.621 -23.593
O 56.007 5.300 -12.089
O 90.812 8.973 -7.290
O 214.709 24.109 -18.386
O 197.327 1.048 -8.476
O 193.868 11.346 -29.597
O 76.302 0.604 -23.979
O 205.969 29.196 -24.018
O 214.819 7.592 -28.127
O 51.425 16.511 -28.552
O 195.598 22.827 -30.232
O 196.525 10.440 -24.982
O 65.840 14.405 -10.824
O 92.186 26.311 -6.516
O 83.320 0.606 -9.775
O 201.275 28.287 -11.184
O 214.044 23.703 -14.272
O 219.489 20.982 -0.197
O 214.356 15.746 -29.590
O 219.446 10.723 -8.016
O 218.302 22.224 -17.720
O 63.021 0.489 -4.411
O 93.313 20.517 -9.280
O 50.787 23.207 -2.524
O 58.835 29.827 -28.799
O 199.885 1.910 -27.370
O 60.300 7.874 -5.041
O 53.684 23.988 -8.792
O 65.795 13.734 -13.364
O 196.243 28.811 -8.822
O 224.252 27.689 -10.852
O 91.228 2.673 -16.711
O 67.676 14.659 -15.153
O 230.853 6.250 -8.551
O 193.019 15.848 -15.183
O 82.800 8.632 -23.393
O 200.614 4.801 -10.368
O 220.334 10.968 -25.513
O 72.200 14.461 -13.504
O 66.668 23.460 -20.968
O 83.382 8.147 -12.594
O 63.015 4.526 -4.765
O 51.405 19.410 -6.938
O 65.219 18.149 -30.612
O 62.854 19.582 -23.539
O 87.566 21.672 -23.625
O 213.242 27.250 -25.940
O 200.374 23.566 -11.899
O 220.869 30.238 -8.896
O 197.159 19.582 -28.110
O 229.054 31.163 -1.933
O 51.918 18.150 -22.145
O 204.395 10.702 -25.634
O 204.576 31.362 -24.981
O 197.650 30.895 -12.124
O 216.483 3.037 -29.653
O 68.824 16.413 -21.555
O 202.522 26.869 -13.108
O 192.063 9.983 -4.723
O 212.590 13.533 -9.770
O 191.727 13.239 -6.481
O 54.954 18.579 -28.661
O 216.262 14.829 -22.463
O 57.928 6.652 -24.901
O 213.976 22.141 -16.363
O 77.272 2.972 -30.107
O 65.545 25.968 -24.176
O 53.893 12.669 -8.957
O 73.841 22.652 -15.069
O 59.383 0.947 -8.106
O 72.919 31.077 -16.350
O 78.376 16.850 -27.464
O 212.179 21.468 -1.377
O 85.895 27.075 -23.526
O 74.463 9.211 -29.310
O 212.483 28.871 -22.814
O 77.800 29.791 -11.837
O 221.659 29.360 -15.131
O 226.658 1.361 -0.978
O 231.913 12.758 -6.669
O 232.759 2.730 -13.695
O 202.148 27.330 -15.737
O 93.530 24.579 -5.101
O 220.083 6.229 -24.616
O 228.306 9.024 -7.142
O 206.606 16.029 -31.403
O 52.205 13.122 -11.013
O 53.865 21.502 -10.608
O 212.070 5.073 -6.281
O 59.182 10.174 -5.471
O 86.094 27.461 -28.878
O 188.421 21.571 -28.233
O 84.933 0.617 -28.009
O 209.640 13.620 -12.408
O 208.917 8.931 -28.425
O 193.901 26.136 -14.741
O 85.105 4.864 -1.742
O 58.275 18.257 -5.667
O 96.969 13.384 -12.945
O 224.253 22.332 -0.737
O 54.065 8.296 -24.178
O 230.852 23.868 -19.555
O 225.575 12.945 -28.849
O 67.494 22.207 -9.056
O 71.874 15.460 -23.508
O 58.854 9.805 -8.617
O 232.345 23.931 -8.149
O 79.800 9.261 -30.008
O 73.637 8.274 -7.533
O 217.774 10.118 -12.958
O 211.690 28.178 -1.349
O 54.697 10.410 -19.696
O 200.166 27.381 -5.671
O 52.089 20.903 -30.498
O 223.727 13.276 -31.078
O 80.797 1.287 -8.571
O 60.891 8.368 -25.640
O 218.677 24.304 -15.988
O 222.199 28.191 -17.593
O 224.585 26.304 -14.616
O 71.532 28.636 -12.623
O 189.084 13.991 -6.108
O 222.326 29.985 -28.961
O 204.445 2.048 -1.812
O 222.110 25.169 -30.547
O 192.727 3.058 -5.409
O 86.608 15.524 -19.009
O 226.414 1.893 -21.703
O 205.363 9.912 -9.272
O 64.066 11.499 -24.699
O 95.459 20.747 -15.481
O 215.890 9.463 -3.049
O 93.438 5.976 -4.618
O 70.273 23.449 -1.824
O 50.926 26.114 -31.349
O 194.875 30.098 -14.469
O 94.228 4.576 -15.675
O 90.874 4.982 -23.424
O 58.175 28.418 -5.804
O 64.182 20.487 -0.025
O 224.296 9.646 -22.782
O 90.545 11.269 -0.981
O 78.479 26.710 -31.254
O 222.917 2.456 -3.937
O 197.118 15.697 -11.975
O 84.447 11.312 -14.732
O 212.208 4.875 -0.894
O 76.672 28.527 -2.240
O 71.917 17.755 -4.961
O 59.626 21.525 -11.096
O 94.094 26.748 -14.523
O 93.568 0.559 -24.485
O 54.984 31.166 -0.258
O 195.001 8.324 -21.481
O 223.071 30.310 -10.609
O 222.091 18.187 -16.166
O 186.134 6.955 -1.239
O 86.378 30.245 -19.332
O 190.781 17.922 -6.368
O 91.287 0.697 -14.470
O 188.908 30.323 -30.274
O 75.604 9.394 -10.420
O 227.891 19.087 -16.811
O 93.352 7.437 -31.153
O 89.069 21.607 -14.425
O 205.144 13.643 -4.924
O 204.263 3.998 -21.361
O 53.562 18.242 -12.911
O 76.905 19.406 -28.710
O 211.978 2.881 -7.798
O 78.394 10.677 -7.060
O 89.224 5.567 -2.646
O 197.828 4.410 -30.202
O 92.756 5.017 -20.556
O 198.138 4.094 -27.207
O 50.268 30.579 -15.053
O 220.786 26.534 -8.567
O 72.436 5.138 -26.840
O 214.090 5.862 -26.099
O 92.133 16.865 -9.941
O 54.268 15.074 -7.329
O 55.000 0.244 -11.136
O 193.047 28.089 -2.154
O 62.785 23.528 -0.858
O 88.670 27.605 -5.671
O 74.584 11.713 -27.965
O 70.012 9.238 -3.664
O 189.795 6.740 -0.648
O 202.220 13.787 -30.155
O 80.977 21.549 -3.957
O 224.015 25.072 -20.638
O 229.570 16.268 -27.388
O 93.379 3.244 -18.222
O 65.889 10.939 -14.030
O 50.736 13.071 -1.827
O 63.921 3.111 -12.146
O 59.373 15.748 -4.755
O 63.722 6.646 -10.953
O 55.898 4.449 -22.663
O 193.048 29.497 -22.682
O 87.944 31.317 -5.323
O 72.654 30.600 -23.258
O 222.173 22.172 -17.854
O 220.594 2.957 -2.626
O 204.695 2.435 -14.450
O 197.849 21.372 -21.985
O 191.393 27.092 -15.430
O 69.962 3.726 -10.201
O 80.275 0.766 -18.992
O 90.083 8.196 -12.657
O 54.240 5.310 -8.345
O 226.949 3.046 -5.786
O 193.709 14.175 -1.167
O 203.008 3.799 -9.972
O 227.256 8.648 -22.354
O 216.361 4.961 -4.494
O 97.000 1.045 -21.039
O 226.118 11.316 -14.747
O 55.371 25.411 -12.145
O 75.679 27.248 -25.439
O 221.846 26.162 -14.961
O 50.759 28.227 -26.523
O 205.863 21.039 -28.572
O 89.552 22.732 -22.181
O 50.907 11.214 -8.680
O 95.623 9.877 -6.441
O 87.252 6.256 -0.979
O 215.107 2.072 -20.115
O 83.840 20.419 -28.280
O 193.515 11.204 -10.395
O 92.115 1.816 -2.599
O 68.721 17.003 -30.536
O 70.637 1.437 -8.747
O 70.707 7.570 -18.377
O 223.797 7.592 -0.980
O 196.888 18.479 -12.391
O 74.281 0.351 -11.520
O 62.230 20.144 -10.476
O 191.433 25.078 -19.716
O 82.757 14.900 -13.739
O 52.243 0.320 -29.984
O 229.874 23.228 -1.134
O 232.765 22.146 -29.886
O 206.959 21.176 -11.930
O 216.634 29.679 -18.840
O 63.737 15.743 -8.026
O 201.645 0.133 -8.781
O 76.522 27.840 -18.855
O 93.857 3.162 -25.986
O 205.553 13.037 -23.186
O 81.010 4.942 -14.012
O 76.048 17.586 -20.462
O 80.133 15.998 -14.677
O 208.919 11.877 -14.488
O 60.885 27.093 -0.100
O 223.892 12.390 -22.546
O 197.795 20.807 -11.245
O 51.389 4.896 -23.716
O 217.119 19.034 -17.051
O 84.805 22.322 -7.153
O 68.727 14.144 -11.243
O 227.871 28.745 -1.707
O 221.976 -0.009 -13.024
O 202.975 29.000 -18.868
O 55.765 23.294 -2.803
O 93.762 3.822 -0.423
O 218.103 4.962 -19.917
O 94.044 26.269 -19.351
O 89.459 9.064 -22.846
O 189.870 26.089 -27.984
O 51.011 24.408 -8.090
O 204.765 5.617 -12.695
O 87.159 7.617 -26.752
O 83.254 0.362 -13.245
O 226.574 30.741 -22.552
O 191.696 29.834 -5.247
O 84.135 2.397 -5.268
O 208.628 21.175 -6.481
O 195.849 10.903 -20.925
O 227.520 10.537 -24.478
O 58.894 30.536 -21.879
O 190.525 3.987 -11.454
O 74.974 18.921 -4.852
O 80.527 31.160 -4.460
O 93.500 22.737 -7.488
O 59.467 3.617 -27.067
O 56.592 26.769 -16.419
O 50.582 11.647 -13.069
O 228.837 26.878 -3.856
O 227.757 13.992 -30.587
O 90.860 18.362 -29.893
O 206.376 27.514 -3.424
O 77.243 2.415 -15.973
O 226.311 18.487 -19.988
O 85.062 14.350 -12.447
O 231.461 26.851 -4.269
O 71.163 18.257 -12.977
O 193.049 22.964 -22.335
O 56.843 13.923 -25.811
O 50.464 19.169 -14.135
O 199.667 12.957 -8.385
O 233.064 20.712 -19.402
O 88.036 9.369 -14.543
O 202.860 25.547 -2.534
O 230.065 11.079 -0.180
O 83.530 5.406 -18.098
O 60.892 10.599 -10.430
O 92.964 22.225 -11.441
O 80.707 1.323 -13.413
O 58.584 1.887 -31.411
O 89.014 11.853 -5.061
O 221.454 8.805 -15.296
O 53.023 22.438 -20.612
O 94.925 7.770 -9.730
O 228.740 30.624 -20.703
O 219.084 22.852 -9.697
O 95.268 5.932 -11.996
O 75.026 17.085 -16.063
O 95.373 23.173 -2.275
O 54.721 15.027 -2.870
O 59.754 14.402 -21.545
O 215.815 21.864 -13.282
O 207.014 3.744 -0.336
O 224.879 18.076 -22.248
O 66.988 12.546 -16.718
O 190.893 9.520 -13.876
O 211.736 13.820 -20.054
O 57.446 28.327 -22.935
O 221.055 13.770 -13.326
O 231.538 7.513 -13.612
O 215.237 30.784 -1.585
O 93.042 16.652 -14.922
O 90.165 4.490 -5.381
O 230.813 26.705 -19.617
O 94.629 0.641 -1.025
O 203.586 2.533 -25.786
O 67.712 5.002 -26.067
O 74.097 7.215 -5.017
O 68.648 10.802 -29.273
O 227.628 17.027 -4.970
O 210.104 29.889 -9.781
O 62.660 20.184 -5.534
O 62.916 14.934 -24.833
O 195.224 13.819 -26.978
O 73.695 25.818 -19.054
O 216.338 26.371 -31.077
O 60.489 1.961 -12.787
O 86.370 29.824 -6.927
O 209.401 13.275 -21.355
O 226.062 2.576 -30.102
O 225.780 20.614 -15.950
O 189.452 28.344 -25.798
O 78.501 13.813 -10.477
O 64.425 28.299 -25.337
O 84.878 8.382 -4.159
O 225.600 5.510 -1.900
O 91.399 21.581 -6.144
O 61.215 30.562 -27.366
O 88.382 30.238 -17.355
O 93.528 6.990 -13.626
O 221.408 23.945 -19.678
O 232.579 18.129 -22.347
O 202.429 6.034 -14.403
O 86.869 3.414 -24.842
O 225.403 2.448 -19.232
O 195.965 26.656 -22.859
O 56.851 6.324 -20.979
O 216.588 12.286 -31.021
O 203.586 1.799 -19.926
O 225.083 8.686 -12.032
O 96.503 16.350 -2.594
O 223.328 23.549 -3.113
O 221.735 9.429 -21.872
O 94.647 10.847 -9.244
O 75.693 24.377 -6.276
O 227.070 19.963 -22.486
O 224.180 16.913 -29.928
O 225.123 5.001 -15.196
O 68.367 19.233 -18.882
O 223.031 26.033 -6.220
O 227.247 0.244 -18.372
O 76.316 0.422 -20.500
O 189.172 0.083 -19.556
O 227.063 28.254 -23.772
O 199.449 8.793 -30.776
O 74.467 13.309 -21.446
O 66.522 12.936 -2.750
O 58.599 24.626 -18.375
O 211.065 15.698 -17.169
O 63.785 23.486 -4.259
O 82.847 28.520 -14.448
O 85.186 18.569 -4.177
O 211.305 6.087 -26.376
O 89.900 22.172 -25.820
O 191.945 23.467 -30.679
O 78.012 8.885 -12.305
O 232.327 20.262 -27.275
O 50.991 5.498 -15.093
O 194.274 16.257 -12.784
O 90.582 29.479 -11.257
O 205.916 12.233 -10.685
O 71.529 30.611 -2.886
O 67.014 5.352 -4.581
O 78.249 20.689 -19.443
O 206.828 30.560 -13.281
O 218.440 14.850 -18.529
O 86.636 15.160 -7.430
O 201.213 20.703 -17.736
O 196.696 30.422 -16.385
O 195.850 0.827 -6.112
O 91.029 15.610 -27.644
O 65.486 5.462 -12.426
O 215.552 1.955 -27.094
O 221.027 27.812 -27.947
O 94.861 10.778 -27.396
O 225.943 23.279 -16.881
O 95.681 19.295 -24.986
O 94.543 6.078 -2.152
O 53.043 15.470 -22.086
O 216.233 29.552 -7.584
O 96.728 29.832 -16.370
O 58.564 5.088 -13.194
O 206.416 2.336 -3.657
O 230.668 19.253 -5.746
O 62.236 24.585 -22.071
O 201.345 5.125 -4.570
O 221.797 11.124 -6.475
O 64.774 17.530 -14.168
O 79.075 16.542 -17.698
O 84.128 31.449 -24.069
O 203.482 16.253 -13.390
O 191.087 7.962 -16.321
O 225.496 6.771 -20.157
O 90.599 20.057 -9.600
O 185.991 16.337 -10.208
O 52.169 23.775 -30.820
O 218.423 27.723 -19.498
O 65.412 1.739 -10.486
O 207.760 20.421 -30.614
O 78.215 10.789 -27.507
O 205.083 27.325 -19.637
O 74.155 27.825 -21.266
O 49.364 18.823 -29.043
O 70.769 13.435 -3.592
O 77.012 24.021 -28.247
O 232.982 15.205 -4.971
O 197.745 21.004 -30.748
O 84.926 14.781 -5.066
O 55.878 11.146 -11.071
O 69.795 23.877 -9.159
O 72.547 20.500 -4.034
O 202.140 21.326 -22.740
O 65.306 3.529 -26.524
O 191.621 15.668 -31.093
O 201.959 29.944 -28.534
O 67.449 7.076 -20.199
O 195.357 29.544 -18.415
O 84.960 18.938 -21.901
O 80.065 21.685 -6.745
O 194.096 18.248 -2.723
O 79.820 23.513 -26.103
O 207.417 13.527 -18.405
O 229.198 15.227 -1.189
O 64.366 26.533 -9.294
O 69.198 27.340 -19.670
O 94.928 11.341 -12.034
O 58.874 6.642 -8.754
O 194.490 23.571 -20.134
O 216.476 22.043 -27.568
O 85.321 17.008 -27.683
O 61.771 28.095 -9.369
O 217.014 17.475 -23.268
O 215.328 30.994 -25.323
O 215.700 25.228 -15.988
O 224.087 13.248 -14.962
O 222.030 15.304 -18.365
O 59.658 6.337 -16.780
O 52.270 10.897 -2.014
O 64.987 28.750 -14.496
O 222.959 19.550 -30.898
O 92.879 17.538 -18.816
O 55.318 27.861 -10.839
O 90.435 26.950 -24.123
O 58.928 17.839 -15.460
O 206.635 15.506 -24.177
O 74.097 23.412 -20.327
O 192.521 28.031 -29.447
O 228.912 19.326 -13.641
O 202.158 8.119 -25.753
O 200.037 10.003 -23.452
O 213.536 7.474 -6.869
O 195.349 22.028 -15.085
O 71.948 26.892 -9.728
O 94.784 23.433 -20.425
O 233.255 15.243 -25.448
O 191.441 20.688 -10.323
O 97.916 27.608 -13.198
O 63.103 1.030 -22.453
O 224.669 15.001 -21.069
O 199.211 29.496 -9.765
O 226.433 16.620 -17.931
O 215.908 6.971 -17.566
O 52.241 28.674 -11.400
O 188.840 17.772 -3.461
O 216.228 11.327 -28.293
O 189.781 15.905 -11.921
O 64.230 27.682 -19.522
O 74.836 7.601 -14.344
O 68.074 23.143 -25.695
O 79.433 26.407 -8.449
O 84.754 9.017 -30.358
O 224.584 16.598 -5.200
O 84.608 10.402 -8.561
O 77.601 20.046 -9.321
O 204.631 28.098 -0.965
O 232.003 22.621 -13.066
O 226.629 20.214 -1.263
O 205.950 10.946 -17.557
O 59.669 14.160 -0.079
O 74.973 30.653 -29.184
O 55.603 3.440 -18.417
O 190.310 24.997 -5.995
O 95.903 8.331 -21.539
O 53.419 30.705 -13.056
O 57.963 9.754 -0.954
O 79.825 16.072 -29.599
O 51.031 7.210 -7.968
O 66.545 17.173 -1.582
O 207.799 27.093 -10.426
O 231.801 15.178 -12.558
O 70.470 9.415 -27.642
O 193.159 17.185 -29.378
O 67.149 3.975 -2.317
O 59.726 15.051 -13.566
O 81.739 1.796 -22.311
O 192.003 31.116 -28.597
O 209.065 3.066 -20.422
O 195.470 26.688 -17.074
O 59.436 19.928 -13.522
O 195.452 3.357 -6.523
O 58.998 19.336 -2.821
O 97.264 11.634 -7.804
O 188.309 29.046 -3.566
O 52.073 13.804 -25.652
O 52.202 9.571 -19.457
O 231.498 23.243 -16.849
O 218.396 24.742 -2.401
O 217.875 31.389 -24.451
O 233.195 30.181 -22.439
O 76.148 20.145 -21.679
O 77.934 12.509 -12.617
O 214.507 24.207 -11.287
O 221.735 8.733 -31.221
O 188.711 0.175 -13.011
O 203.365 19.855 -16.495
O 83.689 10.818 -1.803
O 82.001 3.453 -9.528
O 201.348 2.867 -0.532
O 233.335 6.072 -23.274
O 205.350 21.159 -24.075
O 208.811 28.562 -14.098
O 72.472 9.138 -25.884
O 217.270 17.932 -27.309
O 214.235 31.126 -22.417
O 208.138 6.347 -5.760
O 74.933 9.240 -0.656
O 189.413 8.349 -18.627
O 59.545 16.585 -25.157
O 217.595 17.270 -5.641
O 49.516 29.185 -7.540
O 74.360 16.854 -28.755
O 222.318 11.339 -14.056
O 229.573 5.670 -27.623
O 82.626 12.018 -17.441
O 215.956 4.805 -14.037
O 75.446 30.854 -15.706
O 53.632 22.516 -25.624
O 76.894 2.099 -10.514
O 56.675 23.855 -10.338
O 69.947 24.021 -6.342
O 206.978 14.679 -29.081
O 81.020 28.535 -28.866
O 82.413 26.655 -18.759
O 192.010 19.040 -4.263
O 71.939 24.191 -28.170
O 188.822 26.433 -10.863
O 227.609 1.071 -15.110
O 85.144 13.383 -17.487
O 219.166 20.581 -4.056
O 213.572 18.213 -4.324
O 230.918 11.145 -4.607
O 197.762 21.985 -5.380
O 67.254 8.917 -9.693
O 221.818 6.035 -28.117
O 216.831 13.539 -14.511
O 79.550 16.962 -21.795
O 191.189 21.852 -28.467
O 88.170 21.424 -27.774
O 96.198 20.715 -27.286
O 206.987 8.058 -17.514
O 55.185 1.348 -23.291
O 215.265 27.613 -14.646
O 231.299 18.171 -13.822
O 190.746 1.126 -5.879
O 90.302 18.937 -18.553
O 62.713 7.397 -23.125
O 58.809 27.650 -8.621
O 79.121 27.755 -6.053
O 51.832 30.924 -3.633
O 197.070 10.915 -16.630
O 195.524 3.920 -11.550
O 85.628 17.703 -1.442
O 91.355 6.902 -1.381
O 68.610 18.275 -26.358
O 94.268 7.762 -19.293
O 213.983 18.651 -20.067
O 77.834 25.474 -18.481
O 88.188 13.686 -1.883
O 217.066 25.434 -10.936
O 208.205 1.549 -13.177
O 64.602 14.431 -22.370
O 52.288 30.128 -9.101
O 77.997 6.311 -25.199
O 221.748 20.657 -13.342
O 71.763 11.950 -19.615
O 230.514 16.466 -18.275
O 93.616 18.007 -12.072
O 64.684 9.744 -20.706
O 91.575 5.483 -16.051
O 201.339 29.572 -4.779
O 205.688 25.839 -9.595
O 64.034 1.339 -28.772
O 194.727 5.149 -8.473
O 70.454 4.441 -30.971
O 93.965 17.727 -6.085
O 208.233 19.227 -8.384
O 50.578 27.842 -15.273
O 92.531 10.262 -22.208
O 211.135 21.902 -5.743
O 70.581 28.098 -17.390
O 72.249 14.556 -20.229
O 225.784 26.343 -22.298
O 53.237 10.367 -30.928
O 202.787 20.822 -20.058
O 57.386 3.362 -2.354
O 60.432 8.106 -29.042
O 206.355 12.095 -26.936
O 202.098 11.646 -17.753
O 58.440 8.320 -27.030
O 218.313 2.678 -23.375
O 203.313 28.675 -23.992
O 86.831 26.653 -12.508
O 60.982 29.203 -12.930
O 198.489 1.018 -29.766
O 207.567 26.507 -28.601
O 83.334 5.617 -22.225
O 63.113 11.737 -9.380
O 231.405 11.727 -27.665
O 75.792 15.927 -12.133
O 58.071 26.755 -12.797
O 54.344 3.283 -29.281
O 198.104 26.463 -8.470
O 56.462 -0.054 -28.502
O 196.617 31.161 -1.339
O 198.819 21.867 -24.551
O 228.083 9.884 -19.842
O 83.469 26.521 -27.082
O 89.413 20.735 -30.261
O 233.265 4.027 -26.814
O 68.054 14.887 -0.810
O 222.866 30.387 -19.101
O 204.029 0.209 -12.868
O 67.933 24.959 -23.020
O 188.018 7.781 -11.034
O 217.956 27.796 -2.285
O 203.260 14.900 -0.959
O 53.053 28.209 -0.213
O 200.165 22.031 -4.038
O 70.831 18.399 -0.171
O 205.741 24.906 -12.323
O 61.649 0.275 -14.701
O 75.969 24.450 -14.808
O 78.098 28.344 -26.088
O 223.567 23.771 -15.817
O 63.430 21.449 -16.874
O 229.082 27.101 -10.864
O 203.185 17.579 -21.287
O 197.765 13.097 -5.893
O 84.822 1.074 -21.690
O 50.602 8.162 -14.703
O 204.451 1.278 -17.264
O 196.758 23.308 -25.665
O 55.510 19.451 -3.617
O 73.519 10.161 -17.843
O 70.497 9.132 -21.643
O 50.508 2.069 -28.765
O 210.374 8.412 -30.602
O 72.245 7.041 -20.582
O 58.912 11.717 -30.862
O 63.343 10.017 -13.585
O 98.294 11.999 -10.760
O 71.770 20.501 -11.059
O 75.758 14.517 -9.794
O 207.190 30.211 -5.844
O 81.896 14.943 -4.279
O 215.934 28.610 -4.031
O 214.792 3.756 -22.265
O 196.026 17.568 -16.242
O 197.660 28.735 -5.857
O 63.848 2.758 -8.288
O 205.435 20.114 -21.604
O 97.055 16.005 -26.213
O 70.640 6.394 -9.663
O 228.822 24.609 -14.682
O 73.034 0.251 -1.069
O 204.366 28.866 -15.050
O 195.964 19.521 -18.342
O 72.724 19.070 -29.542
O 49.747 4.465 -4.809
O 84.782 2.088 -25.586
O 195.003 21.003 -22.316
O 49.808 11.628 -29.741
O 83.998 8.810 -20.940
O 64.346 28.280 -28.542
O 233.534 23.948 -0.514
O 227.917 23.685 -5.130
O 218.092 28.702 -30.113
O 49.886 22.940 -21.875
O 229.418 30.215 -24.132
O 53.291 28.151 -16.043
O 202.532 13.411 -14.458
O 97.440 14.584 -22.024
O 79.533 1.687 -11.006
O 221.926 11.200 -27.708
O 207.440 11.033 -29.427
O 65.067 2.038 -2.734
O 206.470 17.942 -6.679
O 196.225 13.185 -15.508
O 65.355 22.903 -31.064
O 53.519 6.968 -10.550
O 61.789 19.004 -3.041
O 80.877 4.929 -16.910
O 77.138 25.095 -22.582
O 94.053 5.726 -29.016
O 56.967 0.322 -25.310
O 56.363 11.260 -26.635
O 95.090 5.298 -18.544
O 63.219 19.253 -12.633
O 74.799 26.343 -10.568
O 64.550 23.649 -22.976
O 88.937 22.200 -8.440
O 189.849 10.037 -8.625
O 222.620 2.816 -22.668
O 200.371 12.025 -31.377
O 197.854 15.058 -8.476
O 59.616 8.526 -15.031
O 206.930 14.908 -7.527
O 63.504 17.440 -17.987
O 225.885 3.098 -26.115
O 233.123 6.205 -20.513
O 186.538 16.533 -20.889
O 209.159 6.567 -9.957
O 208.090 3.594 -23.147
O 200.958 11.148 -5.431
O 51.534 3.182 -13.361
O 198.029 17.720 -8.816
O 59.151 17.552 -10.630
O 200.641 10.245 -19.865
O 50.748 30.023 -24.250
O 204.866 17.547 -26.405
O 191.305 7.343 -29.925
O 92.339 18.032 -22.206
O 76.770 30.596 -0.163
O 90.550 13.685 -16.012
O 93.710 13.297 -8.403
O 201.680 14.459 -23.796
O 95.229 5.311 -25.175
O 82.224 29.904 -16.808
O 52.762 17.402 -30.828
O 56.104 24.461 -15.132
O 218.613 3.423 -4.266
O 216.506 29.978 -13.486
O 217.329 0.538 -15.209
O 73.879 14.909 -0.811
O 51.643 9.763 -16.834
O 186.853 10.668 -11.628
O 80.043 22.245 -15.918
O 224.672 22.358 -5.319
O 207.141 5.343 -20.314
O 97.329 22.681 -25.660
O 211.427 20.402 -8.281
O 215.307 20.491 -29.891
O 196.517 4.048 -2.659
O 96.434 22.596 -18.171
O 98.692 6.511 -15.156
O 96.005 3.217 -11.838
O 50.018 22.667 -9.866
O 89.326 24.354 -10.912
O 86.354 29.624 -24.442
O 211.737 16.733 -29.066
O 221.021 25.000 -26.662
O 223.052 0.210 -5.645
O 213.298 3.463 -14.189
O 81.670 4.133 -28.524
O 211.600 31.327 -15.790
O 216.602 22.802 -6.344
O 81.740 17.692 -17.447
O 60.630 18.109 -17.728
O 208.553 3.063 -10.900
O 49.257 0.607 -0.564
O 88.296 21.664 -1.986
O 65.412 18.757 -22.966
O 89.999 8.280 -9.801
O 197.781 21.853 -1.947
O 84.562 29.044 -4.005
O 70.845 3.846 -15.188
O 208.135 1.177 -7.121
O 85.029 19.637 -24.604
O 57.767 11.604 -16.265
O 62.289 6.614 -17.805
O 216.268 11.680 -25.417
O 86.571 22.982 -29.302
O 74.275 7.362 -27.304
O 212.002 17.106 -22.053
O 210.324 5.873 -29.079
O 206.422 7.259 -28.253
O 96.483 9.176 -3.379
O 225.412 2.814 -3.248
O 200.255 7.763 -3.275
O 190.593 3.142 -29.534
O 76.001 13.305 -3.349
O 87.319 24.852 -17.591
O 194.620 15.130 -19.787
O 64.910 4.307 -22.462
O 189.488 11.017 -2.662
O 217.067 6.680 -22.085
O 210.169 24.102 -31.109
O 217.732 28.124 -27.150
O 224.216 26.138 -0.464
O 91.118 24.315 -30.045
O 87.522 5.599 -12.255
O 60.306 11.073 -16.543
O 89.582 17.500 -9.270
O 64.474 8.728 -9.284
O 65.924 3.239 -29.245
O 219.188 6.383 -0.317
O 233.441 24.882 -11.847
O 78.775 26.747 -15.930
O 89.816 9.096 -4.879
O 93.814 22.415 -27.719
O 229.871 12.855 -2.399
O 50.631 2.487 -25.625
O 214.512 24.610 -5.109
O 96.618 19.823 -20.103
O 55.587 11.683 -23.049
O 56.780 13.806 -18.155
O 83.440 5.070 -24.984
O 68.793 3.279 -7.260
O 190.561 23.339 -10.854
O 207.448 2.155 -18.064
O 229.627 8.295 -4.967
O 91.689 29.866 -25.355
O 210.665 29.547 -27.986
O 71.293 23.833 -15.168
O 187.389 14.379 -11.540
O 212.912 4.902 -10.120
O 87.747 22.314 -20.136
O 211.493 3.253 -11.899
O 86.314 1.572 -4.089
O 216.410 15.347 -7.326
O 54.590 11.535 -6.601
O 65.093 23.972 -8.389
O 76.674 26.648 -4.160
O 85.662 8.733 -10.622
O 231.660 13.937 -18.586
O 196.525 7.547 -27.692
O 204.175 7.982 -5.637
O 214.720 7.014 -23.583
O 52.452 19.127 -16.990
O 71.745 23.359 -10.973
O 62.761 11.933 -0.345
O 90.844 20.641 -12.167
O 199.909 17.755 -18.074
O 192.340 20.315 -21.275
O 212.497 27.994 -13.874
O 69.171 28.658 -22.113
O 224.826 4.865 -30.703
O 74.281 17.688 -9.740
O 208.384 23.519 -19.453
O 69.054 20.441 -22.664
O 91.748 30.618 -1.198
O 86.072 23.262 -3.063
O 214.080 13.750 -23.910
O 210.231 26.587 -27.992
O 73.203 1.774 -18.172
O 232.480 1.704 -29.588
O 232.006 25.590 -26.907
O 203.885 19.112 -28.485
O 229.816 0.854 -4.321
O 200.474 29.759 -16.129
O 80.451 4.817 -25.262
O 202.999 18.273 -11.216
O 82.323 8.324 -2.151
O 221.846 5.141 -30.643
O 218.808 7.075 -11.410
O 196.787 1.918 -13.511
O 192.837 14.086 -17.672
O 55.223 27.098 -2.251
O 221.540 21.046 -10.221
O 62.157 3.590 -1.951
O 70.162 11.066 -8.744
O 225.209 25.237 -24.831
O 198.138 7.018 -11.812
O 65.547 18.934 -16.641
O 50.091 22.228 -27.739
O 218.470 13.521 -20.969
O 54.023 0.938 -28.090
O 228.299 5.242 -15.198
O 230.971 5.736 -11.275
O 196.724 12.208 -9.614
O 56.302 20.424 -16.050
O 93.690 0.055 -27.496
O 61.416 26.664 -28.894
O 84.418 3.615 -20.630
O 69.752 2.728 -1.677
O 195.780 29.210 -30.806
O 57.675 17.216 -28.889
O 201.663 0.870 -21.859
O 60.709 28.852 -2.386
O 75.291 23.982 -3.046
O 232.906 1.092 -19.146
O 199.105 9.779 -15.475
O 97.893 4.844 -18.117
O 204.705 1.546 -5.789
O 214.047 28.657 -18.585
O 69.319 27.067 -11.737
O 67.209 0.245 -16.300
O 94.277 27.660 -22.959
O 78.383 20.988 -12.438
O 198.106 5.586 -15.965
O 81.651 11.848 -14.521
O 206.770 1.306 -23.292
O 96.363 14.471 -6.810
O 91.323 23.165 -4.065
O 209.021 11.373 -25.435
O 81.716 17.146 -31.247
O 70.994 13.862 -9.544
O 79.921 14.081 -20.405
O 57.009 26.904 -0.186
O 71.064 23.387 -25.839
O 92.547 19.902 -1.780
O 192.691 7.308 -25.797
O 199.748 24.645 -27.488
O 188.738 5.932 -9.327
O 204.640 12.886 -2.383
O 210.000 11.697 -27.858
O 89.201 1.396 -25.252
O 205.245 17.567 -23.246
O 59.841 20.789 -19.953
O 65.608 25.486 -4.016
O 65.415 7.457 -23.410
O 194.850 19.320 -14.341
O 218.881 5.081 -29.197
O 70.072 27.293 -5.515
O 57.331 13.086 -12.289
O 199.498 9.560 -7.684
O 208.501 16.154 -20.924
O 224.429 20.422 -2.861
O 83.968 10.509 -5.668
O 89.440 2.914 -1.957
O 203.566 19.774 -7.596
O 52.747 5.056 -6.081
O 91.769 3.686 -29.640
O 89.286 15.714 -0.181
O 193.775 1.561 -13.031
O 202.693 15.317 -9.656
O 200.451 2.536 -24.808
O 74.127 9.906 -12.901
O 86.327 19.314 -29.333
O 58.945 24.115 -8.614
O 215.857 24.073 -2.075
O 51.476 6.315 -28.044
O 212.931 4.807 -29.566
O 90.007 5.584 -13.737
O 208.070 19.760 -17.912
O 79.390 22.169 -0.428
O 195.027 8.812 -29.549
O 192.650 2.512 -18.475
O 210.615 0.495 -12.751
O 213.778 28.525 -9.777
O 204.036 26.126 -24.069
O 71.191 20.744 -24.770
O 230.614 15.321 -14.954
O 212.603 13.768 -1.759
O 207.449 5.288 -14.223
O 216.342 21.612 -3.686
O 198.339 29.231 -14.482
O 211.788 10.903 -30.128
O 220.670 15.257 -8.923
O 77.353 2.982 -23.122
O 228.245 22.760 -19.770
O 195.898 2.131 -21.051
O 232.552 7.420 -5.590
O 77.311 22.127 -14.876
O 54.087 20.043 -6.205
O 73.727 24.913 -8.521
O 208.228 26.234 -5.472
O 213.313 26.283 -21.771
O 88.526 9.975 -26.367
O 203.089 10.717 -1.651
O 210.182 23.903 -8.951
O 193.681 2.685 -29.759
O 56.700 15.367 -8.269
O 55.436 0.175 -15.262
O 94.173 0.109 -14.701
O 230.801 7.224 -17.020
O 228.927 2.827 -21.598
O 96.532 12.545 -23.899
O 64.996 30.659 -2.056
O 215.901 8.560 -8.191
O 192.994 23.929 -12.148
O 71.009 10.965 -30.706
O 63.306 12.929 -18.411
O 79.340 2.187 -0.265
O 211.634 7.476 -8.950
O 81.880 3.660 -1.341
O 92.649 12.966 -23.340
O 193.593 10.407 -26.914
O 198.073 11.239 -19.376
O 228.694 22.263 -25.234
O 211.276 25.230 -13.908
O 67.678 27.237 -2.358
O 191.818 19.317 -25.959
O 62.911 19.421 -27.741
O 61.086 1.435 -0.775
O 63.319 27.183 -22.123
O 207.764 23.732 -6.587
O 188.666 3.524 -3.698
O 93.233 20.674 -30.172
O 76.871 10.973 -4.570
O 89.612 19.154 -2.829
O 59.841 29.716 -16.727
O 205.377 22.722 -4.429
O 197.670 16.400 -24.844
O 230.008 19.508 -10.969
O 86.622 8.913 -1.046
O 96.252 27.068 -16.511
O 69.641 19.511 -15.196
O 83.432 22.888 -17.189
O 67.540 8.294 -5.176
O 66.653 25.539 -15.368
O 232.217 9.291 -29.471
O 230.170 30.951 -16.397
O 72.281 1.962 -30.324
O 224.730 19.272 -6.658
O 65.310 1.074 -18.268
O 222.641 25.727 -24.148
O 86.468 21.092 -5.267
O 70.291 10.735 -14.138
O 54.323 16.983 -4.829
O 192.268 1.745 -15.150
O 95.108 21.860 -23.828
O 85.836 17.841 -15.385
O 62.370 28.202 -15.287
O 216.573 11.107 -5.239
O 89.915 16.221 -3.299
O 228.297 25.997 -6.867
O 226.673 15.815 -2.508
O 207.229 22.873 -22.986
O 77.353 27.807 -13.719
O 56.359 20.470 -21.988
O 205.876 18.892 -13.180
O 69.635 29.134 -14.897
O 90.695 20.075 -24.455
O 61.748 10.921 -5.105
O 210.104 27.172 -3.301
O 66.900 30.426 -22.041
O 50.151 25.369 -27.125
O 60.435 31.313 -10.758
O 193.371 2.547 -20.980
O 225.929 6.888 -29.227
O 66.790 17.315 -28.357
O 194.997 21.296 -27.955
O 226.009 7.421 -25.479
O 71.933 30.739 -10.601
O 220.331 14.734 -25.398
O 77.530 22.814 -9.061
O 62.882 4.022 -24.271
O 230.931 17.552 -0.471
O 201.453 18.582 -23.000
O 212.969 26.163 -19.113
O 195.297 6.984 -12.049
O 94.559 12.490 -19.888
O 76.757 23.391 -20.605
O 82.232 10.849 -20.038
O 230.936 18.845 -16.551
O 210.236 1.223 -26.759
O 200.958 2.508 -16.828
O 231.871 3.770 -24.177
O 214.475 13.056 -3.477
O 229.471 20.083 -26.708
O 51.340 2.818 -6.645
O 74.790 3.820 -26.855
O 95.073 21.716 -4.575
O 61.128 22.880 -30.074
O 197.233 3.639 -9.455
O 59.749 16.620 -7.971
O 90.907 28.833 -28.722
O 233.271 21.058 -24.540
O 91.159 10.572 -24.894
O 207.541 0.998 -0.554
O 87.123 20.332 -18.417
O 69.963 21.187 -5.754
O 91.343 22.135 -31.422
O 63.377 5.615 -26.397
O 52.952 9.710 -9.579
O 57.173 4.942 -31.293
O 225.207 25.638 -2.963
O 211.581 5.250 -15.412
O 228.900 13.313 -5.000
O 75.340 14.554 -24.056
O 226.662 20.174 -5.122
O 211.703 20.634 -11.236
O 85.453 21.600 -21.591
O 233.556 8.873 -3.293
O 90.122 1.053 -31.128
O 191.062 7.499 -10.309
O 203.851 28.118 -27.236
O 55.275 7.984 -6.843
O 61.646 2.999 -28.723
O 95.750 9.075 -17.570
O 210.579 24.488 -25.998
O 201.365 19.541 -4.198
O 61.383 29.793 -22.762
O 199.553 5.587 -13.632
O 82.733 23.996 -25.275
O 213.536 22.506 -24.037
O 224.538 11.926 -6.674
O 192.347 30.538 -15.506
O 88.926 5.783 -9.760
O 202.297 0.352 -15.834
O 219.298 19.429 -14.305
O 98.237 16.617 -13.091
O 54.500 23.893 -5.845
O 205.477 10.107 -20.059
O 204.463 24.724 -5.820
O 62.076 29.593 -29.782
O 59.513 26.957 -25.782
O 211.438 26.471 -30.556
O 199.407 9.337 -26.073
O 85.459 12.767 -21.473
O 199.091 12.988 -27.303
O 210.188 0.965 -21.770
O 221.467 20.613 -28.353
O 229.689 10.557 -8.739
O 194.992 11.931 -5.994
O 188.888 7.876 -6.830
O 217.674 19.012 -29.854
O 54.066 22.495 -28.655
O 60.338 19.449 -22.718
O 83.037 29.254 -9.914
O 89.428 24.464 -24.601
O 71.960 5.399 -24.197
O 50.955 0.499 -12.824
O 210.464 9.273 -7.442
O 70.198 30.568 -5.589
O 51.236 3.739 -31.190
O 232.094 20.750 -3.798
O 89.940 18.387 -26.445
O 218.443 25.111 -13.348
O 198.995 18.642 -2.277
O 196.561 15.175 -17.487
O 55.974 2.685 -13.993
O 93.446 30.381 -22.234
O 223.244 24.453 -28.082
O 77.525 16.309 -4.565
O 201.373 23.696 -21.622
O 208.207 18.360 -27.939
O 230.546 18.370 -24.227
O 205.761 10.491 -0.126
O 77.747 29.682 -4.546
O 87.602 15.237 -22.453
O 80.254 4.470 -11.334
O 205.599 22.237 -9.667
O 217.992 5.563 -26.719
O 204.136 16.781 -16.036
O 190.011 18.495 -21.783
O 61.851 8.340 -11.995
O 66.944 10.758 -25.733
O 198.796 11.960 -13.850
O 80.761 14.184 -28.065
O 53.953 6.774 -29.225
O 205.988 4.663 -26.680
O 198.368 18.616 -6.127
O 203.459 27.967 -9.533
O 50.848 23.570 -25.174
O 82.182 8.025 -29.864
O 95.842 25.872 -29.659
O 62.603 6.465 -29.163
O 86.890 25.250 -14.955
O 202.827 5.106 -29.164
O 79.755 18.542 -19.582
O 63.135 22.746 -9.740
O 74.013 27.062 -1.958
O 187.954 29.271 -10.904
O 226.413 30.144 -25.818
O 209.479 20.811 -27.673
O 216.091 3.528 -24.725
O 196.917 0.022 -19.862
O 73.746 1.125 -20.945
O 209.545 18.573 -21.839
O 228.268 19.804 -29.367
O 218.257 2.281 -13.438
O 85.814 14.956 -2.433
O 200.447 18.175 -9.750
O 193.496 30.904 -6.925
O 71.402 2.542 -3.998
O 86.280 11.306 -2.329
O 200.509 11.167 -2.586
O 199.037 6.633 -28.006
O 72.013 4.766 -6.687
O 204.982 6.492 -19.520
O 65.254 31.043 -7.537
O 214.567 22.490 -0.150
O 58.213 10.308 -24.615
O 230.161 4.532 -17.689
O 198.514 26.635 -18.983
O 200.949 20.929 -10.660
O 55.264 27.306 -27.033
O 88.839 27.832 -2.251
O 199.567 4.862 -2.169
O 232.363 28.835 -2.616
O 209.754 12.034 -7.154
O 226.260 6.228 -10.935
O 192.307 9.839 -18.283
O 221.546 22.880 -0.469
O 219.628 12.044 -29.030
O 209.603 4.963 -7.851
O 53.818 10.354 -13.422
O 196.197 22.747 -12.611
O 189.656 11.573 -17.212
O 66.144 28.637 -8.190
O 194.048 11.517 -23.509
O 190.055 28.000 -31.056
O 192.549 19.943 -7.733
O 208.194 0.896 -28.454
O 196.652 12.991 -12.240
O 72.896 30.465 -5.928
O 219.381 6.792 -18.313
O 86.223 6.701 -22.520
O 191.077 29.814 -13.291
O 216.436 2.491 -7.919
O 66.042 25.941 -28.943
O 83.284 26.648 -24.347
O 50.603 5.226 -17.884
O 218.035 26.439 -8.321
O 204.508 16.245 -5.647
O 82.186 6.881 -19.990
O 223.422 8.233 -29.167
O 214.670 12.147 -8.503
O 85.637 11.184 -24.478
O 202.737 22.509 -3.371
O 58.530 30.450 -12.992
O 211.441 14.176 -6.254
O 189.535 2.468 -14.755
O 92.499 14.332 -10.813
O 58.028 23.955 -26.796
O 69.019 5.562 -13.721
O 76.613 3.573 -13.534
O 84.754 22.446 -24.303
O 56.750 31.228 -8.947
O 89.536 17.730 -5.732
O 223.624 15.758 -24.135
O 68.288 7.454 -28.045
O 78.560 18.044 -2.446
O 76.466 10.274 -25.012
O 208.060 27.448 -1.344
O 229.839 0.659 -30.473
O 190.149 12.882 -30.092
O 71.511 27.811 -30.406
O 233.251 12.765 -10.306
O 77.877 28.952 -9.230
O 232.509 16.120 -8.604
O 187.036 0.826 -27.606
O 216.409 31.238 -4.869
O 57.022 21.202 -13.338
O 200.776 13.951 -5.564
O 209.396 28.675 -21.310
O 228.961 17.221 -30.025
O 92.557 4.609 -7.276
O 68.869 0.374 -27.890
O 199.628 29.115 -1.229
O 232.599 1.487 -22.868
O 69.745 13.449 -13.703
O 208.195 23.152 -26.360
O 65.985 0.197 -13.870
O 81.974 24.163 -4.655
O 211.017 17.646 -3.114
O 197.392 22.712 -16.736
O 66.099 10.017 -3.449
O 67.507 4.073 -11.146
O 66.478 4.332 -18.681
O 77.724 12.713 -24.739
O 95.955 19.134 -9.943
O 202.646 11.903 -24.081
O 85.378 7.035 -28.602
O 194.197 12.908 -21.263
O 230.662 23.196 -5.062
O 211.364 20.896 -25.495
O 230.147 24.458 -24.690
O 210.371 12.049 -1.858
O 89.879 11.489 -20.949
O 94.763 15.412 -4.878
O 98.877 11.733 -23.216
O 52.115 2.218 -2.379
O 195.431 29.134 -2.741
O 213.270 30.792 -3.890
O 191.321 2.829 -2.897
O 89.895 25.379 -4.722
O 193.324 29.828 -11.577
O 224.605 0.232 -29.244
O 227.590 24.529 -2.206
O 51.059 7.456 -1.894
O 79.781 13.036 -8.271
O 92.493 13.599 -5.519
O 55.210 21.974 -18.185
O 217.387 2.658 -18.449
O 58.481 2.321 -15.092
O 60.709 15.500 -17.295
O 209.240 18.315 -24.736
O 58.815 16.805 -22.403
O 233.507 0.308 -8.192
O 74.693 15.553 -7.450
O 76.755 20.698 -17.130
O 49.956 10.767 -25.280
O 79.018 18.181 -13.583
O 93.075 19.741 -4.501
O 58.707 0.885 -19.422
O 60.648 24.143 -3.854
O 204.027 18.680 -0.961
O 76.969 3.386 -7.592
O 70.110 25.908 -29.288
O 188.168 16.690 -5.880
O 78.471 21.023 -2.620
O 78.443 4.811 -28.266
O 220.610 15.342 -20.660
O 91.405 28.407 -8.584
O 198.689 30.740 -3.973
O 218.628 9.532 -18.266
O 209.043 16.145 -4.403
O 226.238 12.750 -0.927
O 61.564 16.881 -12.452
O 77.909 4.379 -20.736
O 78.382 23.506 -11.607
O 223.048 6.901 -3.848
O 52.831 25.093 -28.114
O 213.384 8.546 -20.469
O 55.828 25.910 -22.848
O 50.486 26.359 -18.639
O 220.298 4.281 -15.054
O 96.719 17.099 -15.495
O 232.483 4.557 -6.998
O 60.931 11.303 -19.481
O 63.179 3.536 -14.768
O 198.668 26.385 -13.832
O 88.916 2.970 -9.441
O 193.166 6.876 -20.024
O 202.601 25.274 -18.716
O 71.122 11.098 -2.016
O 94.676 20.364 -12.839
O 85.112 6.023 -13.492
O 77.513 12.271 -21.965
O 193.289 14.137 -11.110
O 72.911 5.391 -15.318
O 210.287 24.107 -4.144
O 213.653 22.103 -20.193
O 220.650 10.837 -4.026
O 76.064 19.054 -11.529
O 73.033 23.787 -23.826
O 213.883 24.977 -30.918
O 70.472 21.692 -16.872
O 191.672 10.951 -20.831
O 191.688 30.090 -9.270
O 233.352 27.714 -0.325
O 61.944 6.823 -2.842
O 226.516 4.073 -17.363
O 53.190 14.835 -0.466
O 59.507 13.564 -18.892
O 198.913 13.951 -24.373
O 220.614 24.233 -11.777
O 213.845 10.129 -28.659
O 53.259 17.885 -24.590
O 193.271 8.448 -8.672
O 218.094 14.474 -0.663
O 218.991 29.769 -6.671
O 76.649 14.550 -20.471
O 86.483 29.597 -27.249
O 83.438 23.541 -2.279
O 221.517 3.591 -27.212
O 197.917 15.990 -5.080
O 91.041 9.855 -17.874
O 53.056 26.698 -18.409
O 208.527 30.610 -22.931
O 227.718 13.861 -13.619
O 99.199 19.814 -13.347
O 226.599 21.761 -30.337
O 95.948 14.479 -9.854
O 221.077 18.697 -19.443
O 213.824 8.030 -13.468
O 212.689 26.239 -10.641
O 209.051 30.640 -30.436
O 208.994 21.519 -24.240
O 53.489 13.060 -29.907
O 86.844 15.868 -13.845
O 213.943 1.340 -15.575
O 199.521 30.390 -7.133
O 196.550 3.157 -16.030
O 64.799 18.881 -6.617
O 73.972 15.862 -18.601
O 73.538 27.691 -27.576
O 229.111 2.071 -17.607
O 52.288 25.690 -2.388
O 223.933 21.672 -28.925
O 64.761 5.846 -20.133
O 73.169 30.990 -27.087
O 232.969 14.001 -21.353
O 226.512 16.032 -23.516
O 55.980 2.429 -8.338
O 194.404 25.808 -5.080
O 211.508 31.148 -0.261
O 83.805 21.972 -14.065
O 196.528 21.846 -19.464
O 195.414 7.297 -15.130
O 210.741 29.206 -12.273
O 197.917 10.463 -1.482
O 195.160 24.678 -10.998
O 189.450 10.624 -31.263
O 92.821 25.044 -12.364
O 72.812 12.669 -11.382
O 89.283 0.172 -27.703
O 85.936 27.619 -16.152
O 62.891 30.674 -9.628
O 206.182 11.112 -13.375
O 204.315 8.910 -27.508
O 67.721 4.098 -15.816
O 191.530 6.672 -7.007
O 68.636 15.870 -18.557
O 83.046 4.584 -3.488
O 73.382 4.607 -3.723
O 79.786 6.856 -18.357
O 82.746 11.319 -24.211
O 60.223 2.035 -22.309
O 193.128 21.315 -5.331
O 211.169 24.596 -23.213
O 85.369 10.754 -18.540
O 211.177 22.007 -22.424
O 73.678 20.217 -9.111
O 200.147 15.118 -10.783
O 191.727 13.535 -20.368
O 221.402 15.559 -15.525
O 73.185 14.122 -25.560
O 49.691 4.221 -11.248
O 233.335 18.592 -9.770
O 92.178 6.507 -9.927
O 216.804 6.943 -2.849
O 213.540 19.137 -13.111
O 213.855 21.902 -9.983
O 66.137 30.397 -10.877
O 230.855 11.913 -14.501
O 91.953 28.766 -3.203
O 53.005 24.703 -12.998
O 209.143 12.886 -30.875
O 211.249 12.940 -16.175
O 204.526 23.532 -17.021
O 198.871 19.870 -15.692
O 53.011 0.044 -24.825
O 69.734 11.428 -16.702
O 218.376 28.380 -15.870
O 218.747 30.821 -1.862
O 228.281 20.125 -19.293
O 55.634 12.338 -14.499
O 57.843 24.861 -29.427
O 79.754 8.753 -10.289
O 216.150 17.599 -3.135
O 189.107 13.230 -19.527
O 220.840 1.146 -0.657
O 196.971 16.944 -29.044
O 57.242 15.399 -31.093
O 55.833 13.684 -20.737
O 65.719 30.016 -19.582
O 190.531 29.604 -2.000
O 77.327 6.127 -7.552
O 65.198 13.926 -25.603
O 51.650 7.108 -25.548
O 230.170 15.767 -23.851
O 195.324 19.464 -9.208
O 75.701 27.112 -16.258
O 58.611 20.386 -17.534
O 200.876 23.431 -18.039
O 213.277 5.835 -21.197
O 89.842 16.866 -23.067
O 63.481 21.903 -14.047
O 57.836 13.273 -23.145
O 227.888 5.854 -8.459
O 61.454 12.195 -22.826
O 193.164 19.739 -18.818
O 86.288 29.683 -14.379
O 56.014 21.894 -7.523
O 213.577 16.977 -11.478
O 49.844 11.715 -21.192
O 76.420 8.790 -7.796
O 93.277 25.864 -0.074
O 84.425 28.798 -12.326
O 211.384 16.170 -0.607
O 187.783 11.930 -9.377
O 89.445 5.293 -30.065
O 90.444 2.398 -21.303
O 96.716 27.201 -21.127
O 213.975 13.162 -30.768
O 52.279 22.176 -13.040
O 189.469 6.631 -27.830
O 214.065 13.760 -6.240
O 54.732 29.170 -29.445
O 88.625 24.998 -7.367
O 83.023 16.517 -25.141
O 65.991 22.999 -14.568
O 193.394 6.747 -28.484
O 207.102 9.698 -2.648
O 69.610 9.942 -19.123
O 207.624 23.427 -2.948
O 214.790 24.816 -25.111
O 53.696 5.025 -31.349
O 189.301 28.721 -18.783
O 80.297 28.141 -13.534
O 220.010 30.508 -4.484
O 91.445 21.460 -18.734
O 193.528 20.089 -0.530
O 59.644 24.469 -23.660
O 81.859 30.431 -25.468
O 214.585 0.485 -7.408
O 210.895 20.474 -3.584
O 51.647 20.349 -9.689
O 53.150 26.906 -9.144
O 82.044 24.501 -29.740
O 57.221 7.038 -4.875
O 55.827 18.273 -7.201
O 53.059 29.343 -27.081
O 60.374 13.970 -25.996
O 230.226 21.112 -31.005
O 202.269 0.524 -6.024
O 50.910 12.761 -18.699
O 232.183 0.593 -5.864
O 72.162 8.460 -15.998
O 190.354 6.835 -23.179
O 73.644 22.689 -4.986
O 72.215 26.228 -16.497
O 76.601 25.523 -12.363
O 196.357 18.683 -31.271
O 76.944 7.488 -18.570
O 87.688 0.782 -11.179
O 83.372 23.105 -27.657
O 219.587 2.828 -21.032
O 56.503 5.924 -27.918
O 187.713 1.790 -1.447
O 227.283 10.662 -12.132
O 222.369 28.412 -24.097
O 196.032 6.931 -5.327
O 76.845 27.838 -21.941
O 95.101 10.803 -22.157
O 54.526 14.047 -16.462
O 86.743 17.682 -6.484
O 233.293 10.342 -19.013
O 232.826 10.134 -13.776
O 79.836 18.881 -7.936
O 226.575 12.837 -26.420
O 95.569 14.983 -19.742
O 193.441 1.490 -27.213
O 54.034 1.608 -17.148
O 197.855 24.744 -23.743
O 226.902 11.127 -9.595
O 230.802 1.150 -20.780
O 229.920 3.151 -6.695
O 198.230 1.167 -17.377
O 190.558 29.738 -23.606
O 203.369 17.538 -3.364
O 207.138 13.475 -1.433
O 82.365 27.125 -5.767
O 69.970 6.538 -2.691
O 215.472 5.299 -7.146
O 56.688 21.109 -10.149
O 78.147 6.824 -22.497
O 217.661 10.444 -1.276
O 85.716 2.625 -29.732
O 216.941 11.072 -9.688
O 191.106 10.905 -25.970
O 86.166 20.537 -15.678
O 86.077 12.180 -5.090
O 81.597 11.130 -8.856
O 55.227 25.830 -29.233
O 202.024 2.311 -28.995
O 212.779 23.218 -26.921
O 96.392 17.017 -23.665
O 218.816 16.424 -15.346
O 82.006 19.947 -30.408
O 51.189 23.269 -16.437
O 219.528 8.024 -22.538
O 59.678 19.909 -8.806
O 85.138 8.039 -24.991
O 61.344 3.755 -10.393
O 208.158 25.303 -21.767
O 230.012 9.204 -12.132
O 83.176 19.733 -12.567
O 190.825 10.729 -11.379
O 189.163 28.395 -21.424
O 66.757 30.061 -26.481
O 201.630 17.723 -31.239
O 53.722 3.433 -10.761
O 197.707 12.822 -29.882
O 221.411 23.438 -14.225
O 71.951 8.377 -30.645
O 226.186 26.157 -16.780
O 62.455 15.288 -10.487
O 228.461 6.681 -12.653
O 226.878 5.419 -27.078
O 67.857 27.009 -31.011
O 77.191 3.906 -3.565
O 223.683 1.771 -27.054
O 63.375 14.977 -13.846
O 215.218 27.140 -28.218
O 198.072 25.275 -1.994
O 75.040 5.735 -1.790
O 219.692 31.325 -21.666
O 60.591 26.856 -11.462
O 228.398 8.556 -17.246
O 228.009 14.998 -25.618
O 76.879 8.501 -27.063
O 57.772 30.656 -31.240
O 80.133 21.648 -29.213
O 220.685 2.826 -30.072
O 192.850 15.282 -7.728
O 226.131 9.883 -1.090
O 95.692 30.077 -20.790
O 198.840 13.727 -18.392
O 205.363 18.944 -9.663
O 201.635 16.885 -28.469
O 82.687 12.800 -0.199
O 232.311 0.149 -14.844
O 51.247 16.474 -25.947
O 52.450 12.372 -15.612
O 91.175 27.880 -13.582
O 78.724 11.253 -0.286
O 89.895 16.166 -19.506
O 230.707 2.962 -0.015
O 205.193 25.371 -21.665
O 200.463 27.164 -26.454
O 213.809 3.329 -3.916
O 217.401 24.967 -26.233
O 213.318 8.522 -3.300
O 51.769 10.184 -23.179
O 188.305 8.719 -15.900
O 197.147 9.062 -13.753
O 199.982 28.498 -29.921
O 220.473 24.442 -22.775
O 80.516 27.926 -10.607
O 72.564 14.829 -27.995
O 210.519 2.168 -17.111
O 71.380 2.162 -27.597
O 98.753 20.605 -18.505
O 189.932 1.296 -27.644
O 86.093 22.092 -9.423
O 67.349 24.737 -6.260
O 219.284 30.515 -26.798
O 211.134 15.162 -25.443
O 68.288 12.915 -27.335
O 80.159 9.030 -23.430
O 93.963 28.859 -28.608
O 213.079 10.618 -26.072
O 71.377 13.508 -16.959
O 58.507 11.653 -28.173
O 50.108 20.056 -22.084
O 81.810 28.559 -20.689
O 85.156 6.315 -9.400
O 216.764 21.556 -10.647
O 93.465 3.244 -13.311
O 222.171 20.419 -6.734
O 73.620 29.207 -31.320
O 195.449 2.229 -0.482
O 202.940 8.585 -3.264
O 51.588 27.311 -6.923
O 196.952 8.009 -0.099
O 222.512 1.586 -15.754
O 85.768 24.842 -27.390
O 226.692 24.911 -30.912
O 91.668 12.463 -13.774
O 192.983 20.035 -29.194
O 225.643 20.861 -26.804
O 219.542 17.128 -10.906
O 67.122 13.718 -19.123
O 89.002 20.468 -5.882
O 203.981 5.347 -4.777
O 66.970 28.637 -16.281
O 193.709 7.401 -17.357
O 205.314 30.919 -31.160
O 68.007 17.402 -16.118
O 213.495 0.076 -9.988
O 96.997 9.542 -10.548
O 188.022 3.151 -6.412
O 218.607 18.630 -2.175
O 53.623 20.052 -19.189
O 78.540 13.732 -18.122
O 218.010 13.363 -26.712
O 223.313 10.817 -11.427
O 80.925 19.551 -14.991
O 66.860 12.383 -30.492
O 228.321 28.666 -28.248
O 67.894 22.113 -19.013
O 67.620 20.899 -13.727
O 227.134 19.104 -25.245
O 71.410 17.279 -20.790
O 65.711 13.828 -8.105
O 69.003 22.474 -11.782
O 82.858 15.389 -18.582
O 57.813 0.169 -16.949
O 60.995 1.367 -17.735
O 215.302 18.401 -25.388
O 81.651 28.618 -23.361
O 226.435 0.717 -8.765
O 226.786 23.229 -27.966
O 55.106 19.499 -31.322
O 92.751 14.626 -18.065
O 215.267 16.014 -14.788
O 197.212 7.448 -20.113
O 186.376 14.542 -16.129
O 60.725 13.985 -2.691
O 221.475 17.973 -28.806
O 71.903 2.530 -11.579
O 190.987 1.911 -8.844
O 218.614 19.267 -9.822
O 199.476 14.716 -3.344
O 71.719 11.732 -22.440
O 222.786 12.473 -17.416
O 82.717 19.070 -25.999
O 194.239 11.755 -16.949
O 75.069 20.940 -25.833
O 191.672 9.825 -23.372
O 193.128 24.677 -17.747
O 192.296 27.312 -4.504
O 50.141 21.006 -5.127
O 200.116 12.031 -11.409
O 192.974 18.641 -11.916
O 231.702 9.236 -1.300
O 84.835 0.098 -15.785
O 60.251 5.074 -24.682
O 95.172 5.667 -7.998
O 83.941 2.851 -11.380
O 216.649 25.339 -20.107
O 69.242 27.062 -26.981
O 188.808 19.844 -5.684
O 64.919 30.919 -23.900
O 62.663 17.768 0.018
O 61.655 15.566 -6.392
O 61.006 28.323 -6.391
O 60.638 22.429 -25.736
O 193.746 6.792 -0.633
O 91.369 4.372 -27.028
O 76.227 3.371 -1.086
O 79.032 10.150 -2.701
O 93.996 29.703 -31.268
O 85.402 9.115 -16.194
O 95.111 19.869 -0.669
O 190.103 4.992 -14.028
O 231.530 3.016 -2.824
O 223.923 28.539 -7.933
O 224.291 19.933 -12.490
O 80.880 24.844 -15.434
O 230.025 5.201 -21.201
O 55.253 24.663 -25.509
O 95.905 1.879 -30.272
O 232.023 19.796 -1.325
O 87.973 12.488 -22.818
O 62.901 8.852 -16.219
O 230.327 5.395 -3.365
O 76.620 6.420 -12.704
O 62.731 1.226 -26.209
O 92.011 2.617 -9.614
O 68.407 31.254 -8.265
O 78.020 30.479 -22.169
O 212.490 30.194 -20.448
O 199.049 15.104 -28.865
O 210.377 19.968 -31.141
O 204.802 1.077 -10.444
O 218.257 21.445 -23.032
O 188.532 1.077 -21.827
O 198.581 3.896 -23.279
O 200.966 18.759 -6.976
O 57.020 15.923 -11.145
O 95.190 3.182 -8.800
O 198.499 8.283 -5.172
O 212.579 13.183 -12.604
O 59.956 5.144 -31.121
O 220.475 8.900 -12.154
O 208.842 9.386 -13.095
O 230.800 2.776 -27.443
O 91.597 4.553 -11.750
O 84.331 28.601 -18.319
O 230.148 7.118 -0.371
O 194.164 17.713 -24.644
O 61.083 9.798 -31.128
O 190.646 13.752 -27.268
O 91.401 24.084 -27.259
O 199.615 0.987 -14.332
O 72.828 9.468 -3.472
O 196.046 6.081 -24.035
O 194.867 28.579 -5.430
O 95.180 17.456 -20.961
O 224.838 15.256 -9.412
O 233.330 3.314 -17.345
O 63.195 22.014 -24.865
O 231.354 26.230 -30.667
O 77.154 12.684 -29.195
O 206.372 30.474 -2.862
O 207.612 27.069 -25.023
O 219.208 7.073 -15.603
O 192.891 8.645 -2.417
O 223.113 13.070 -3.237
O 67.480 19.940 -6.770
O 97.132 3.807 -15.030
O 62.508 30.488 -6.973
O 80.774 1.906 -27.212
O 194.326 26.567 -8.588
O 68.096 17.541 -8.148
O 202.466 21.578 -0.596
O 202.633 17.114 -18.401
O 218.701 5.893 -7.465
O 200.932 16.589 -2.328
O 69.249 0.230 -0.965
O 72.883 18.443 -25.382
O 230.434 15.288 -6.014
O 78.521 7.468 -2.758
O 92.699 9.169 -11.954
O 49.221 1.567 -3.171
O 208.144 20.599 -2.260
O 220.388 19.697 -22.099
O 73.157 28.991 -8.385
O 89.051 13.516 -28.492
O 88.060 1.284 -20.752
O 63.040 12.539 -3.027
O 216.810 18.758 -20.859
O 192.421 24.459 -25.486
O 224.648 12.476 -9.460
O 230.487 13.049 -9.677
O 191.802 27.627 -18.329
O 78.177 20.655 -23.388
O 202.777 29.724 -21.458
O 71.969 3.039 -22.301
O 86.728 9.596 -22.348
O 86.663 2.509 -1.449
O 51.551 7.543 -5.475
O 210.723 17.443 -15.160
O 74.860 30.012 -24.903
O 70.894 30.527 -20.893
O 88.746 16.825 -12.167
O 56.285 10.183 -8.103
O 230.425 28.249 -12.879
O 222.178 18.795 -25.736
O 55.814 28.817 -20.557
O 80.235 29.589 -7.446
O 228.452 10.798 -27.821
O 98.527 7.664 -17.888
O 209.554 29.542 -4.905
O 220.631 27.348 -31.030
O 197.377 30.406 -27.873
O 68.731 28.381 -7.583
O 216.049 20.843 -18.848
O 201.940 28.181 -2.411
O 87.173 11.677 -30.298
O 85.043 14.709 -31.051
O 71.196 17.537 -27.318
O 193.041 29.428 -19.944
O 95.599 9.624 -14.671
O 90.222 11.426 -11.520
O 193.488 26.023 -23.454
O 52.312 3.741 -27.500
O 79.535 24.674 -1.273
O 203.815 9.306 -16.967
O 89.299 28.706 -21.763
O 64.173 27.270 -5.627
O 216.151 5.812 -29.607
O 83.714 28.750 -30.395
O 84.336 17.340 -30.417
O 54.498 18.459 -21.284
O 191.939 5.151 -16.387
O 61.024 9.452 -23.082
O 69.943 4.700 -4.914
O 50.606 14.114 -30.340
O 52.785 16.480 -16.269
O 196.460 27.306 -0.964
O 216.803 0.562 -11.250
O 53.005 13.909 -13.530
O 80.478 8.440 -26.179
O 83.198 13.284 -10.513
O 222.179 31.125 -22.963
O 217.118 8.150 -26.553
O 49.361 26.312 -5.713
O 221.671 5.727 -9.765
O 204.476 26.766 -29.847
O 212.322 0.820 -5.899
O 61.595 12.882 -7.324
O 187.920 3.221 -10.208
O 97.781 24.782 -17.368
O 83.240 2.892 -30.690
O 83.170 31.110 -5.266
O 206.356 5.958 -24.246
O 63.306 28.831 -3.391
O 81.027 15.028 -6.932
O 189.893 1.239 -31.351
O 59.287 26.602 -3.508
O 50.613 17.628 -1.359
O 204.066 7.045 -1.223
O 63.337 0.176 -31.138
O 90.616 29.439 -19.143
O 67.513 10.969 -7.801
O 84.860 15.602 -9.598
O 75.147 3.556 -17.482
O 203.939 23.346 -19.928
O 76.848 7.493 -0.690
O 190.891 16.256 -2.209
O 233.604 11.589 -3.821
O 233.703 3.344 -20.803
O 62.315 26.785 -17.879
O 83.637 3.801 -14.061
O 191.585 2.247 -25.375
O 93.025 20.182 -25.958
O 49.465 29.968 -4.550
O 212.420 31.216 -29.027
O 227.212 26.533 -19.371
O 86.752 24.471 -24.827
O 233.263 16.600 -30.744
O 208.615 3.675 -5.111
O 224.308 18.265 -14.654
O 212.889 13.629 -26.767
O 201.433 5.571 -26.247
O 87.918 18.871 -0.686
O 226.572 17.515 -0.163
O 55.459 2.327 -0.708
O 66.652 17.940 -20.640
O 61.068 22.420 -7.757
O 202.876 21.879 -26.026
O 189.070 7.515 -13.542
O 201.417 31.055 -12.162
O 223.550 7.467 -14.171
O 230.954 18.736 -19.841
O 203.650 22.381 -29.773
O 187.214 0.331 -3.672
O 71.433 27.837 -2.608
O 64.607 14.833 -2.639
O 51.255 30.250 -1.008
O 62.472 24.019 -17.673
O 66.870 25.859 -19.111
O 209.899 1.253 -9.071
O 200.005 24.376 -9.305
O 225.369 1.217 -16.492
O 231.934 7.173 -27.607
O 83.461 14.809 -27.289
O 92.857 18.335 -27.905
O 58.754 27.089 -28.459
O 54.980 30.888 -18.684
O 73.450 4.464 -12.863
O 80.926 11.694 -29.490
O 217.789 4.235 -16.351
O 65.084 23.855 -18.641
O 219.704 31.065 -29.387
O 74.903 16.061 -4.805
O 83.701 29.199 -7.088
O 228.573 29.784 -10.461
O 211.675 9.893 -4.929
O 220.279 0.442 -18.879
O 70.860 6.494 -28.630
O 191.154 1.341 -11.774
O 221.967 15.349 -30.840
O 74.794 21.363 -12.124
O 85.892 27.001 -5.339
O 49.626 15.991 -22.822
O 213.691 16.947 -17.976
O 222.136 5.679 -12.724
O 220.082 26.482 -17.284
O 191.750 5.573 -2.104
O 83.330 10.900 -12.117
O 52.112 13.899 -5.859
O 75.929 21.149 -3.361
O 84.693 17.487 -18.120
O 222.594 30.563 -1.468
O 89.050 14.660 -8.647
O 191.892 10.756 -7.200
O 225.997 20.237 -8.971
O 81.242 10.478 -6.170
O 87.941 29.391 -11.918
O 79.561 3.282 -6.440
O 219.371 28.843 -23.980
O 97.618 6.506 -4.447
O 227.324 0.396 -6.101
O 190.926 18.223 -18.151
O 220.977 18.010 -0.439
O 93.391 13.856 -0.687
O 49.373 4.931 -2.031
O 218.621 27.750 -12.973
O 74.605 8.376 -19.625
O 202.863 14.525 -27.663
O 63.987 21.146 -2.708
O 97.291 7.719 -13.012
O 228.306 14.934 -19.044
O 209.672 5.150 -12.509
O 75.966 11.798 -0.685
O 216.098 7.516 -14.883
O 213.243 16.521 -24.444
O 67.850 23.838 -0.852
O 54.060 29.753 -2.460
O 231.269 28.279 -17.359
O 228.658 27.258 -25.660
O 83.897 6.861 -15.889
O 199.334 17.454 -12.945
O 205.289 16.021 -9.592
O 64.320 26.114 -12.124
O 225.925 22.638 -24.742
O 86.731 28.357 -9.314
O 65.082 10.596 -31.056
O 215.780 14.866 -17.697
O 55.029 5.552 -2.357
O 79.871 2.318 -16.351
O 68.218 5.896 -0.727
O 57.426 15.129 -15.094
O 199.770 15.684 -20.267
O 57.920 13.840 -6.346
O 213.549 17.311 -7.106
O 68.603 11.623 -21.279
O 198.538 25.269 -16.368
O 78.164 14.421 -2.515
O 58.577 22.646 -30.868
O 67.617 30.352 -2.740
O 50.333 18.350 -19.499
O 211.056 21.842 -16.745
O 209.658 30.334 -25.312
O 74.271 5.462 -22.153
O 86.918 2.211 -16.084
O 86.455 14.647 -28.811
O 80.610 24.406 -21.467
O 202.201 21.577 -6.262
O 87.564 2.831 -13.399
O 215.319 14.817 -27.113
O 206.533 2.544 -8.966
O 83.363 26.128 -15.913
O 63.025 26.578 -1.896
O 71.039 16.525 -15.883
O 93.733 16.118 -26.654
O 205.316 23.264 -27.119
O 93.112 25.113 -16.734
O 195.024 14.485 -4.263
O 91.850 31.331 -7.474
O 58.820 2.799 -10.100
O 66.784 18.124 -12.568
O 202.657 23.886 -7.814
O 209.881 25.381 -11.421
O 56.242 26.622 -4.843
O 64.504 2.483 -20.341
O 86.433 13.291 -15.088
O 191.458 1.254 -22.331
O 74.930 20.753 -0.870
O 49.814 23.580 -18.927
O 193.628 4.895 -21.999
O 231.524 23.486 -22.386
O 71.381 1.042 -25.011
O 190.452 22.178 -23.620
O 196.435 2.124 -23.828
O 209.779 19.558 -12.957
O 225.192 9.184 -4.614
O 226.475 28.047 -6.960
O 72.567 29.267 -18.894
O 61.712 1.822 -6.959
O 61.854 12.423 -14.719
O 77.320 14.845 -14.152
O 61.224 24.100 -11.309
O 72.513 15.588 -3.373
O 59.830 7.534 -1.294
O 219.087 8.029 -3.847
O 90.674 12.605 -7.848
O 202.008 16.160 -7.067
O 82.205 23.145 -7.480
O 217.648 13.740 -10.395
O 72.437 26.086 -22.663
O 224.875 4.428 -7.265
O 189.667 15.507 -14.826
O 221.865 31.297 -25.734
O 93.763 22.351 -17.229
O 73.410 11.626 -24.556
O 223.014 28.517 -31.241
O 50.992 15.581 -3.292
O 206.126 29.389 -21.270
O 56.026 9.097 -17.264
O 205.352 14.852 -11.993
O 202.836 22.674 -15.017
O 93.090 9.659 -29.342
O 89.341 15.398 -25.465
O 208.943 20.411 -15.460
O 66.621 6.057 -29.971
O 221.699 16.793 -22.625
O 219.073 25.900 -28.399
O 83.192 17.453 -14.498
O 205.332 30.067 -17.336
O 75.083 11.814 -9.409
O 66.578 28.079 -12.426
O 224.541 29.813 -14.857
O 75.771 8.221 -22.736
O 213.063 18.968 -30.252
O 186.832 2.921 -30.511
O 226.664 17.525 -9.850
O 210.180 27.542 -18.749
O 197.664 11.571 -22.818
O 71.825 15.688 -7.173
O 52.313 27.476 -23.893
O 201.119 31.292 -24.338
O 220.424 11.660 -10.284
O 79.828 26.444 -23.032
O 193.839 26.503 -0.110
O 206.135 25.965 -17.234
O 205.634 14.970 -26.643
O 197.164 21.333 -8.765
O 233.668 13.933 -13.855
O 226.172 28.336 -13.373
O 72.101 20.679 -19.098
O 206.080 24.868 -24.994
O 58.232 19.519 -24.401
O 85.591 13.085 -26.895
O 49.727 29.494 -29.792
O 200.956 7.411 -9.496
O 225.367 3.711 -23.340
O 189.477 8.687 -4.343
O 230.583 28.516 -21.858
O 206.831 28.544 -30.492
O 225.559 22.261 -10.600
O 85.226 16.704 -23.529
O 214.994 11.860 -19.308
O 86.607 5.142 -30.027
O 74.707 24.579 -30.402
O 218.035 9.496 -24.307
O 221.109 2.730 -17.797
O 89.442 7.734 -28.601
O 209.222 16.823 -7.003
O 231.643 8.783 -7.751
O 84.943 24.657 -18.718
O 93.991 5.794 -22.785
O 205.709 26.900 -7.036
O 55.636 26.383 -19.136
O 51.846 20.671 -3.113
O 196.872 6.911 -8.524
O 56.055 16.314 -22.514
O 92.650 23.683 -1.716
O 192.984 24.243 -6.876
O 76.140 20.291 -6.845
O 86.360 12.388 -10.415
O 226.748 25.427 -13.290
O 81.565 7.547 -14.545
O 208.894 26.365 -8.255
O 67.030 1.427 -25.858
O 201.682 11.533 -26.997
O 59.337 26.823 -15.184
O 233.155 29.697 -27.107
O 63.613 18.271 -8.880
O 212.458 15.842 -13.673
O 199.693 22.027 -7.711
O 95.968 16.660 -11.292
O 66.033 17.131 -9.898
O 219.031 8.969 -31.012
O 70.092 26.553 -23.862
O 191.759 31.237 -18.072
O 94.340 20.936 -21.369
O 67.265 0.889 -30.100
O 69.086 7.985 -11.493
O 212.386 29.909 -25.293
O 81.564 30.674 -1.617
O 72.388 7.955 -23.510
O 192.061 9.712 -31.248
O 53.130 0.571 -5.680
O 68.725 8.722 -25.518
O 199.206 25.044 -4.559
O 220.626 14.496 -4.219
O 72.098 20.637 -1.191
O 81.447 12.879 -22.136
O 215.761 2.027 -0.803
O 188.362 0.326 -9.121
O 62.734 24.892 -6.329
O 186.658 12.459 -6.847
O 86.994 27.549 -20.672
O 92.166 8.977 -3.362
O 195.119 10.043 -2.768
O 218.496 24.624 -31.087
O 223.024 9.503 -17.478
O 94.458 26.330 -25.506
O 56.883 4.858 -7.968
O 195.390 21.974 -4.204
O 74.124 21.446 -17.593
O 88.052 27.727 -30.806
O 228.695 18.984 -3.577
O 58.487 29.165 -19.354
O 220.309 22.846 -3.198
O 220.261 20.070 -16.909
O 232.841 15.111 -16.454
O 67.200 17.507 -4.181
O 203.943 11.009 -14.870
O 198.190 5.321 -6.577
O 56.500 18.126 -14.207
O 81.195 15.338 -23.465
O 195.907 15.027 -30.753
O 220.497 17.457 -5.379
O 73.312 28.526 -14.962
O 54.974 28.040 -13.953
O 211.252 7.478 -13.425
O 76.566 0.664 -13.369
O 91.036 8.245 -26.223
O 203.023 24.877 -31.057
O 207.143 2.804 -15.334
O 225.879 13.282 -3.535
O 222.995 5.782 -19.364
O 82.799 6.287 -27.311
O 58.392 21.180 -6.356
O 193.210 23.589 -14.988
O 198.662 17.073 -15.577
O 203.918 27.546 -4.652
O 226.236 6.263 -22.951
O 206.458 5.004 -3.373
O 200.437 19.997 -30.563
O 96.270 4.261 -5.340
O 229.964 12.029 -24.216
O 79.473 10.095 -21.082
O 209.467 23.855 -15.360
O 228.508 4.103 -30.014
O 78.191 14.391 -31.106
O 208.962 17.368 -18.369
O 73.573 17.055 -13.627
O 199.616 1.530 -6.051
O 205.910 30.031 -27.857
O 81.105 21.467 -11.833
O 227.243 16.582 -13.749
O 231.986 5.301 -31.183
O 199.458 3.934 -18.664
O 82.857 7.606 -10.085
O 60.254 1.013 -3.714
O 200.586 4.155 -7.074
O 56.060 8.265 -31.386
O 196.186 12.666 -1.282
O 56.574 4.091 -25.756
O 72.734 25.301 -12.293
O 201.603 20.633 -28.133
O 214.600 28.329 -0.826
O 223.199 13.589 -27.580
O 79.113 24.797 -4.091
O 84.056 6.128 -5.520
O 82.053 25.601 -0.645
O 220.524 18.202 -8.025
O 56.931 16.894 -2.999
O 86.141 18.124 -9.613
O 79.585 29.810 -19.785
O 191.986 0.557 -1.683
O 199.706 29.922 -26.293
O 201.339 7.331 -0.732
O 91.429 1.128 -28.763
O 72.302 22.610 -30.666
O 55.919 18.616 -11.485
O 94.123 16.362 -1.150
O 53.279 13.280 -20.099
O 57.786 7.895 -13.171
O 228.241 2.675 -8.866
O 51.666 8.039 -12.298
O 85.241 0.890 -7.632
O 191.440 16.022 -22.524
O 63.912 6.892 -5.646
O 193.372 10.359 -14.658
O 98.047 24.949 -20.119
O 96.563 23.405 -28.721
O 51.889 10.257 -4.837
O 80.228 22.926 -23.646
O 220.905 2.034 -11.657
O 66.496 31.207 -5.067
O 58.630 22.326 -3.739
O 209.113 17.502 -10.211
O 229.602 21.915 -14.351
O 214.056 10.468 -6.363
O 229.568 11.397 -17.234
O 215.808 9.108 -19.644
O 77.757 7.044 -29.543
O 213.245 28.194 -7.203
O 87.536 18.134 -19.896
O 54.251 5.382 -17.196
O 227.585 1.151 -26.358
O 225.487 25.696 -27.954
O 212.279 10.987 -19.729
O 57.991 22.826 -16.278
O 201.858 8.855 -14.317
O 203.256 10.639 -21.683
O 75.947 15.916 -30.798
O 202.957 14.285 -18.651
O 53.431 20.374 -14.738
O 93.832 3.152 -4.747
O 79.591 9.717 -18.447
O 203.658 6.761 -23.957
O 225.115 3.971 -11.535
O 61.887 20.416 -30.157
O 74.826 1.975 -29.186
O 191.026 13.338 -12.457
O 216.542 28.414 -10.373
O 88.188 16.945 -28.959
O 188.656 4.965 -29.936
O 224.883 17.471 -25.518
O 200.263 28.540 -18.627
O 219.697 12.686 -16.620
O 224.526 21.113 -22.228
O 221.552 21.572 -25.206
O 214.668 20.970 -7.415
O 232.522 12.606 -25.169
O 206.182 7.627 -30.903
O 62.103 24.395 -27.721
O 199.999 23.678 -0.200
O 222.677 4.755 -5.534
O 70.453 22.713 -20.227
O 221.662 27.521 -12.297
O 89.741 14.323 -11.369
O 57.718 28.992 -10.742
O 53.000 12.835 -23.165
O 88.129 7.860 -18.275
O 211.089 22.003 -29.586
O 70.836 29.399 -28.127
O 59.700 12.101 -12.922
O 194.782 29.072 -24.890
O 79.345 18.347 -24.485
O 204.850 13.351 -16.848
O 54.371 8.924 -4.168
O 216.430 14.963 -3.184
O 222.552 25.416 -10.424
O 224.999 14.115 -18.352
O 76.221 28.513 -28.133
O 206.215 9.855 -5.338
O 87.155 19.273 -26.404
O 79.230 1.948 -3.074
O 228.119 5.452 -1.138
O 212.931 2.482 -27.913
O 64.113 25.859 -15.037
O 84.441 20.491 -17.625
O 232.859 0.464 -10.896
O 77.272 10.656 -14.444
O 223.231 10.151 -2.774
O 77.227 22.616 -25.867
O 51.121 16.081 -13.963
O 231.887 12.588 -30.579
O 203.759 11.915 -6.436
O 79.116 30.548 -24.778
O 207.265 24.852 -0.776
O 215.705 12.481 -12.180
O 204.438 29.809 -6.163
O 81.612 0.684 -30.674
O 231.748 24.622 -2.493
O 218.896 24.088 -7.311
O 188.240 0.348 -6.430
O 56.283 21.172 -27.818
O 200.645 25.804 -30.032
O 76.522 14.946 -27.716
O 83.585 14.521 -21.224
O 210.284 9.247 -1.871
O 191.915 5.051 -24.244
O 68.740 7.359 -23.093
O 90.774 13.258 -3.327
O 226.424 12.824 -23.536
O 198.570 17.165 -22.265
O 213.326 28.018 -4.443
O 232.830 17.736 -6.593
O 223.230 8.793 -6.252
O 232.808 5.118 -14.927
O 65.002 15.008 -31.148
O 71.332 9.809 -11.822
O 78.042 2.175 -19.261
O 208.714 13.417 -9.590
O 70.885 18.506 -18.299
O 57.187 10.039 -21.166
O 220.242 12.029 -22.634
O 55.335 8.092 -14.658
O 217.976 4.212 -9.591
O 192.765 5.754 -4.830
O 200.530 5.277 -30.404
O 74.408 25.150 -27.629
O 219.042 23.017 -25.126
O 57.958 19.944 0.014
O 206.996 11.849 -7.081
O 194.824 9.246 -6.641
O 203.365 31.065 -2.966
O 226.999 12.222 -18.662
O 65.151 15.914 -19.573
O 53.419 6.072 -22.386
O 193.305 21.686 -25.910
O 213.536 11.848 -14.993
O 95.850 25.604 -3.912
O 82.555 19.218 -2.970
O 206.136 26.838 -14.329
O 69.158 3.868 -21.258
O 195.657 3.991 -25.755
O 213.232 19.054 -15.859
O 221.691 15.963 -2.139
O 209.855 26.948 -23.186
O 83.344 23.213 -20.633
O 83.231 28.130 -1.671
O 229.949 15.900 -9.118
O 65.985 14.600 -28.312
O 218.691 13.477 -7.730
O 202.694 4.276 -23.671
O 79.497 29.257 -16.621
O 225.834 9.702 -16.733
O 74.138 28.256 -5.005
O 79.532 25.183 -29.256
O 70.356 1.522 -13.739
O 89.199 26.801 -9.733
O 193.312 30.241 -31.115
O 58.432 3.829 -18.377
O 197.864 14.655 -0.965
O 216.336 18.759 -7.682
O 223.901 29.119 -26.355
O 232.539 21.185 -8.867
O 70.180 18.696 -9.492
O 228.471 7.837 -29.575
O 94.516 27.799 -1.700
O 206.228 18.203 -29.960
O 197.647 10.777 -4.333
O 82.857 31.163 -20.308
O 74.042 2.645 -9.491
O 195.253 4.572 -28.512
O 96.561 12.125 -15.298
O 221.868 22.068 -22.162
O 224.652 0.718 -13.363
O 210.080 7.142 -18.616
O 213.061 9.384 -15.686
O 94.539 17.934 -16.847
O 56.590 8.241 -23.153
O 72.947 13.112 -30.122
O 232.093 17.396 -26.607
O 57.148 6.141 -17.790
O 200.266 13.154 -16.209
O 192.597 15.746 -4.515
O 199.103 23.444 -20.171
O 199.114 6.380 -24.707
O 227.625 31.223 -29.260
O 66.416 7.100 -14.931
O 224.272 2.241 -8.956
O 189.072 28.918 -6.240
O 80.938 16.905 -2.583
O 89.942 8.016 -16.126
O 208.728 15.827 -14.271
O 86.763 23.902 -11.248
O 223.283 14.499 -7.158
O 213.074 7.250 -17.566
O 67.747 2.559 -13.518
O 194.574 4.558 -17.387
O 96.765 16.646 -29.014
O 218.554 17.631 -18.832
O 56.819 10.050 -3.746
O 227.602 21.880 -6.985
O 227.762 10.283 -30.523
O 190.403 18.460 -13.113
O 224.761 24.048 -7.477
O 69.445 13.602 -22.649
O 92.220 7.771 -23.599
O 199.732 30.428 -20.451
O 60.084 6.109 -11.332
O 81.307 17.090 -9.778
O 92.097 -0.007 -10.311
O 62.018 3.624 -19.074
O 88.553 11.781 -16.073
O 75.684 31.401 -5.307
O 57.197 29.267 -15.204
O 201.666 6.271 -20.669
O 49.916 21.881 -14.568
O 232.968 19.953 -12.286
O 75.190 29.073 -10.131
O 199.928 28.800 -22.646
O 83.226 0.947 -17.839
O 206.030 14.101 -20.643
O 53.503 26.397 -4.916
O 233.530 5.621 -29.052
O 220.531 3.404 -24.621
O 226.274 8.316 -8.900
O 64.981 8.089 -28.888
O 64.632 9.940 -17.897
O 219.672 14.687 -29.794
O 223.067 16.348 -27.325
O 59.447 1.171 -25.748
O 203.956 0.410 -28.863
O 210.918 21.700 -19.672
O 75.248 12.318 -14.183
O 188.709 15.534 -17.697
O 57.806 4.084 -5.443
O 57.335 28.898 -25.698
O 216.654 5.029 -0.624
O 80.256 19.496 -27.162
O 89.348 8.745 -31.107
O 89.223 6.733 -24.441
O 59.551 4.755 -20.821
O 195.707 0.336 -25.682
O 215.594 5.052 -11.407
O 97.853 19.597 -16.169
O 62.952 9.886 -26.992
O 202.955 24.222 -12.639
O 61.249 6.736 -20.521
O 213.334 28.711 -29.889
O 71.793 27.892 -25.480
O 88.347 4.653 -26.877
O 60.382 4.201 -15.127
O 195.773 24.597 -3.263
O 75.577 24.619 -24.798
O 219.724 16.208 -27.479
O 60.467 24.138 -15.616
O 195.355 10.707 -12.677
O 206.540 6.119 -10.638
O 233.509 7.810 -25.447
O 203.055 22.689 -10.350
O 207.623 30.304 -18.761
O 196.333 16.222 -2.662
O 228.715 5.407 -5.615
O 63.708 30.415 -12.702
O 196.222 26.220 -12.857
O 55.239 15.425 -13.180
O 51.881 20.191 -27.908
O 67.064 9.513 -22.202
O 74.642 21.279 -28.607
O 220.072 5.446 -5.246
O 69.915 0.203 -15.899
O 71.797 19.529 -7.274
O 195.038 23.233 -8.563
O 230.016 14.060 -29.035
O 205.696 21.187 -16.308
O 95.769 6.706 -15.763
O 79.484 6.179 -9.480
O 223.066 22.889 -9.260
O 191.957 27.381 -9.733
O 205.982 20.190 -5.390
O 93.549 11.097 -0.038
O 62.146 17.777 -25.540
O 93.949 14.222 -13.021
O 210.797 2.415 -3.966
O 205.580 8.308 -14.011
O 196.913 25.000 -6.435
O 215.647 12.250 -16.499
O 50.136 12.215 -6.165
O 196.741 11.434 -27.851
O 81.990 21.154 -23.192
O 203.106 9.318 -30.280
O 218.209 13.473 -4.888
O 218.643 14.752 -12.748
O 59.830 26.833 -19.124
O 79.075 30.716 -14.094
O 87.852 11.885 -7.834
O 82.851 25.156 -9.469
O 75.549 0.841 -2.044
O 99.062 25.557 -14.645
O 89.975 2.115 -12.327
O 208.673 16.252 -26.089
O 64.165 0.917 -15.658
O 60.541 5.846 -6.691
O 232.648 14.297 -2.412
O 69.308 3.991 -27.947
O 79.226 11.528 -15.968
O 195.457 14.619 -24.224
O 186.707 12.652 -13.985
O 66.933 14.720 -23.759
O 91.864 26.733 -26.500
O 214.926 24.294 -28.204
O 57.614 22.558 -19.795
O 211.532 26.006 -6.104
O 70.480 13.603 -6.263
O 195.241 13.997 -7.929
O 216.730 20.655 -1.124
O 213.815 21.057 -4.931
O 224.995 10.221 -25.363
O 211.798 28.404 -16.719
O 68.001 26.129 -9.490
O 221.322 8.487 -19.289
O 200.676 0.369 -1.885
O 73.862 21.544 -22.237
O 188.662 10.453 -20.121
O 215.880 28.279 -24.964
O 91.856 0.165 -20.392
O 222.963 3.134 -19.927
O 224.395 27.573 -19.214
O 55.492 24.212 -20.677
O 226.527 6.528 -4.191
O 196.702 4.444 -19.602
O 210.374 3.531 -25.006
O 210.821 12.889 -23.904
O 86.484 24.978 -21.207
O 208.568 7.464 -23.828
O 211.926 2.183 -1.475
O 216.311 16.863 -31.170
O 219.230 8.868 -28.231
O 95.639 28.971 -13.921
O 83.736 19.596 -9.929
O 229.787 3.294 -11.209
O 85.522 25.402 -7.696
O 86.908 3.313 -6.593
O 76.717 18.550 -0.408
O 231.873 27.546 -6.945
O 81.057 15.039 -11.516
O 64.914 2.422 -5.853
O 198.291 14.779 -14.155
O 91.427 14.853 -21.336
O 212.959 11.616 -22.542
O 233.170 9.639 -10.109
O 218.274 23.308 -20.293
O 57.836 30.788 -4.355
O 87.131 9.359 -8.206
O 216.904 0.113 -21.237
O 218.581 30.615 -17.425
O 68.102 9.423 -13.720
O 96.802 2.535 -18.492
O 92.766 10.036 -15.529
O 83.649 24.585 -13.661
O 68.364 1.830 -5.076
O 225.609 30.294 -1.958
O 60.510 3.333 -4.912
O 211.105 30.220 -7.206
O 91.528 17.412 -1.149
O 85.984 21.105 -31.259
O 74.100 11.408 -4.965
O 233.562 7.178 -11.704
O 207.155 9.813 -24.039
O 50.229 26.464 -9.944
O 68.125 15.090 -7.182
O 212.138 2.611 -23.039
O 93.631 15.761 -23.895
O 207.026 23.055 -14.026
O 86.415 22.595 -13.622
O 218.286 1.195 -6.330
O 59.578 19.202 -29.232
O 75.727 5.178 -10.284
O 67.621 17.412 -23.805
O 209.527 5.656 -0.506
O 203.382 14.722 -21.353
O 190.565 6.341 -20.296
O 212.851 23.909 -7.854
O 224.472 10.545 -28.174
O 64.841 23.591 -28.132
O 79.759 2.218 -24.583
O 69.282 5.370 -18.857
O 54.468 24.809 -0.945
O 211.465 18.226 -26.341
O 224.458 29.419 -21.620
O 80.491 13.348 -2.115
O 194.052 17.030 -21.982
O 195.903 28.814 -12.258
O 54.096 19.814 -26.272
O 231.389 26.247 -9.586
O 188.556 17.872 -19.576
O 72.236 25.080 -0.677
O 67.235 8.973 -17.830
O 222.502 15.141 -11.396
O 50.243 29.366 -19.837
O 75.814 9.098 -16.489
O 218.664 19.863 -25.868
O 67.020 25.536 -26.447
O 224.223 20.480 -18.539
O 49.785 17.202 -17.093
O 71.007 8.525 -7.827
O 97.074 21.132 -11.729
O 88.471 24.787 -30.921
O 224.055 6.817 -8.012
O 195.441 6.868 -2.610
O 189.484 27.384 -8.394
O 89.066 29.841 -14.699
O 205.175 30.197 -8.929
O 69.007 16.730 -11.883
O 94.345 0.840 -19.056
O 72.856 12.106 -7.259
O 212.715 5.997 -3.300
O 207.098 15.646 -16.650
O 90.474 24.547 -16.151
O 87.527 25.912 -3.264
O 81.981 9.309 -16.879
O 94.289 14.582 -28.781
O 196.469 19.556 -2.386
O 87.625 0.615 -30.023
O 210.463 31.234 -19.161
O 53.596 10.358 -26.542
O 83.115 6.142 -0.467
O 94.439 9.004 -1.750
O 82.218 20.123 -20.659
O 55.885 1.320 -4.831
O 206.465 4.860 -17.368
O 76.095 14.443 -16.921
O 57.245 24.548 -6.661
O 90.948 8.680 -20.449
O 49.622 9.155 -31.355
O 88.249 10.697 -18.653
O 76.213 18.014 -25.155
O 211.730 24.342 -1.777
O 82.368 31.099 -28.083
O 90.423 25.223 -13.494
O 210.564 9.214 -26.172
O 87.149 5.993 -7.594
O 207.679 3.820 -29.025
O 215.922 26.640 -6.630
O 84.898 2.951 -17.926
O 190.492 4.159 -18.606
O 199.444 7.534 -21.961
O 228.581 30.096 -14.048
O 75.599 10.533 -21.157
O 208.286 7.829 -15.083
O 196.780 9.798 -8.491
O 199.617 6.675 -18.251
O 215.997 7.577 -10.727
O 231.560 25.652 -14.059
O 80.901 24.147 -12.453
O 54.322 21.311 -1.754
O 215.275 15.360 -9.787
O 230.636 0.571 -12.368
O 69.016 24.958 -13.787
O 63.253 4.302 -30.695
O 78.721 16.511 -7.088
O 222.366 8.913 -9.652
O 229.497 19.763 -8.200
O 88.846 1.557 -18.001
O 64.884 5.395 -16.547
O 74.201 12.505 -16.772
O 230.882 10.999 -19.790
O 233.213 30.148 -17.712
O 91.444 20.550 -21.285
O 222.515 5.740 -16.364
O 196.627 25.461 -20.423
O 228.175 17.364 -7.677
O 221.119 23.332 -5.907
O 71.156 25.407 -20.337
O 67.605 1.313 -20.489
O 81.894 7.892 -5.658
O 69.751 15.061 -28.674
O 51.218 1.380 -9.654
O 61.387 19.718 -15.703
O 213.414 3.005 -17.886
O 94.463 1.053 -11.976
O 192.512 28.582 -26.725
O 93.364 8.543 -5.790
O 190.173 4.228 -7.805
O 230.623 23.840 -29.016
O 228.687 27.401 -30.712
O 200.059 17.061 -25.958
O 222.457 13.010 -24.818
O 189.886 24.702 -24.567
O 75.508 2.899 -5.247
O 61.491 28.713 -25.232
O 96.025 13.258 -26.467
O 189.374 11.971 -14.572
O 221.446 5.555 -1.931
O 196.994 1.681 -3.887
O 96.793 22.295 -31.145
O 91.360 14.611 -30.340
O 199.712 22.954 -14.489
O 69.957 3.341 -24.934
O 227.092 24.083 -8.946
O 194.604 16.986 -27.193
O 213.985 0.112 -12.802
O 229.132 1.972 -24.128
O 192.740 25.387 -28.725
O 228.912 17.124 -11.610
O 76.769 6.673 -4.817
O 195.933 18.645 -20.840
O 54.686 30.382 -7.389
O 193.008 13.645 -28.785
O 66.886 5.179 -8.550
O 221.998 19.338 -4.148
O 192.426 12.825 -3.572
O 50.817 26.431 -12.860
O 54.824 11.954 -2.799
O 91.373 2.436 -24.019
O 59.818 8.974 -20.721
O 224.509 15.646 -13.489
O 206.747 18.481 -3.238
O 219.483 4.694 -12.402
O 204.721 5.628 -8.675
O 69.784 25.684 -3.357
O 94.775 18.431 -29.996
O 208.375 10.601 -18.975
O 203.093 3.493 -12.592
O 208.937 0.482 -3.226
O 70.903 3.051 -17.864
O 225.427 28.343 -28.748
O 54.235 21.825 -23.096
O 210.223 6.934 -3.780
O 219.500 17.451 -24.442
O 76.960 30.464 -18.017
O 58.703 20.658 -27.002
O 189.465 19.361 -24.184
O 214.546 14.507 -20.151
O 65.619 8.272 -26.021
O 75.694 27.147 -30.946
O 55.133 9.315 -29.166
O 83.516 20.864 -1.081
O 207.950 13.614 -4.191
O 211.482 4.783 -19.297
O 67.054 8.696 -1.115
C 106.595 18.859 -5.965
O 106.036 18.185 -6.726
O 107.155 19.533 -5.204
C 108.306 0.497 -10.486
O 107.620 31.186 -9.918
O 108.992 1.240 -11.054
C 177.311 25.858 -24.114
O 178.424 26.108 -24.323
O 176.197 25.609 -23.906
C 99.840 18.988 -25.672
O 99.152 18.454 -24.905
O 100.528 19.522 -26.439
C 189.842 19.848 -31.209
O 189.960 18.872 -30.593
O 189.724 20.823 -0.393
C 100.736 1.370 -16.678
O 99.849 1.623 -15.975
O 101.624 1.116 -17.381
C 121.307 4.537 -4.991
O 120.793 5.376 -4.376
O 121.822 3.699 -5.606
C 143.896 24.459 -21.321
O 143.332 24.641 -20.324
O 144.460 24.276 -22.318
C 83.319 18.701 -7.039
O 83.073 19.792 -6.731
O 83.564 17.610 -7.348
C 182.135 29.046 -0.627
O 182.705 29.943 -1.092
O 181.566 28.148 -0.162
C 117.783 18.280 -25.176
O 117.626 19.413 -25.367
O 117.940 17.146 -24.986
C 101.908 20.143 -22.569
O 101.605 20.356 -21.470
O 102.211 19.931 -23.668
C 147.447 12.777 -8.842
O 147.911 13.402 -9.703
O 146.983 12.152 -7.982
C 104.515 2.169 -18.341
O 104.397 3.075 -17.626
O 104.632 1.264 -19.056
C 107.160 21.022 -24.220
O 107.207 21.546 -25.253
O 107.114 20.497 -23.186
C 184.501 20.259 -19.340
O 184.056 19.302 -19.823
O 184.945 21.215 -18.857
C 180.077 24.291 -20.284
O 179.742 23.394 -19.630
O 180.412 25.188 -20.939
C 113.828 17.000 -31.258
O 114.829 16.583 -0.237
O 112.826 17.416 -30.846
C 168.891 5.171 -22.207
O 169.471 6.000 -21.639
O 168.311 4.342 -22.775
C 104.741 0.588 -23.311
O 104.020 31.122 -23.171
O 105.462 1.486 -23.452
C 102.601 0.047 -29.073
O 102.121 31.353 -30.121
O 103.082 0.173 -28.024
C 178.535 3.825 -13.204
O 178.368 3.411 -12.133
O 178.702 4.240 -14.274
C 122.685 16.711 -29.562
O 121.760 17.370 -29.326
O 123.609 16.051 -29.798
C 185.888 14.609 -23.874
O 185.097 14.951 -23.098
O 186.679 14.267 -24.651
C 144.059 22.521 -7.861
O 144.998 21.853 -7.993
O 143.120 23.190 -7.729
C 109.928 19.893 -9.452
O 109.288 18.947 -9.251
O 110.568 20.840 -9.652
C 88.440 4.586 -18.250
O 87.462 4.842 -17.680
O 89.418 4.330 -18.819
C 158.785 4.526 -20.260
O 159.469 5.158 -19.568
O 158.102 3.894 -20.952
C 195.444 26.669 -27.420
O 195.133 25.960 -26.556
O 195.756 27.377 -28.284
C 163.555 6.437 -14.661
O 163.423 6.407 -13.509
O 163.688 6.468 -15.813
C 95.921 29.710 -9.815
O 96.899 29.792 -9.195
O 94.944 29.628 -10.434
C 115.186 16.585 -26.363
O 114.938 17.695 -26.139
O 115.434 15.474 -26.587
C 110.502 2.775 -13.796
O 110.138 1.713 -14.088
O 110.866 3.837 -13.503
C 96.035 1.169 -3.358
O 96.773 1.843 -2.770
O 95.297 0.495 -3.947
C 114.303 24.679 -13.091
O 114.857 24.334 -12.133
O 113.749 25.024 -14.050
C 171.627 23.803 -9.178
O 172.507 23.074 -9.377
O 170.748 24.533 -8.979
C 189.518 22.183 -7.912
O 188.472 22.095 -8.404
O 190.565 22.271 -7.420
C 135.733 11.767 -12.790
O 136.540 12.428 -13.298
O 134.926 11.106 -12.282
C 99.932 22.527 -4.754
O 100.687 22.032 -4.024
O 99.178 23.021 -5.484
C 176.429 23.024 -21.464
O 175.990 21.950 -21.441
O 176.867 24.098 -21.486
C 153.177 30.162 -21.579
O 153.070 31.168 -22.146
O 153.283 29.155 -21.013
C 99.684 13.800 -1.125
O 99.309 13.781 -0.028
O 100.059 13.819 -2.223
C 145.357 18.825 -11.039
O 145.677 18.535 -12.115
O 145.037 19.115 -9.962
C 155.752 16.680 -23.001
O 156.077 17.362 -22.121
O 155.427 15.998 -23.881
C 160.537 14.162 -27.460
O 159.593 13.974 -26.812
O 161.481 14.350 -28.107
C 162.682 12.598 -0.662
O 163.458 12.981 -1.434
O 161.906 12.214 -31.322
C 140.156 2.548 -19.526
O 141.181 2.411 -20.051
O 139.131 2.685 -19.001
C 90.493 25.186 -19.402
O 91.120 24.216 -19.515
O 89.865 26.155 -19.289
C 184.555 25.949 -19.738
O 183.936 26.321 -20.645
O 185.174 25.576 -18.830
C 103.877 6.882 -3.890
O 103.131 6.082 -3.502
O 104.623 7.682 -4.277
C 149.810 27.583 -3.210
O 148.851 28.224 -3.083
O 150.769 26.943 -3.338
C 183.365 23.474 -29.971
O 184.324 24.038 -29.643
O 182.406 22.910 -30.300
C 174.594 25.806 -27.765
O 174.519 26.399 -26.770
O 174.670 25.214 -28.759
C 178.291 22.027 -29.812
O 177.366 22.711 -29.963
O 179.216 21.343 -29.661
C 179.736 12.153 -0.765
O 179.931 13.291 -0.877
O 179.541 11.015 -0.653
C 98.516 4.772 -11.516
O 98.311 5.025 -10.403
O 98.722 4.520 -12.629
C 148.270 6.881 -28.007
O 149.374 6.632 -27.751
O 147.167 7.131 -28.264
C 155.626 12.368 -8.552
O 154.659 11.817 -8.227
O 156.594 12.919 -8.877
C 143.763 21.060 -27.857
O 142.615 21.197 -27.765
O 144.911 20.923 -27.948
C 101.388 3.131 -8.451
O 102.296 3.601 -7.902
O 100.481 2.660 -9.000
C 168.034 1.598 -7.156
O 166.946 1.454 -6.778
O 169.121 1.742 -7.533
C 185.841 30.259 -19.286
O 185.629 31.290 -18.801
O 186.053 29.227 -19.772
C 136.531 1.493 -20.009
O 136.014 2.397 -19.499
O 137.048 0.588 -20.518
C 161.071 6.746 -22.504
O 162.121 6.264 -22.403
O 160.020 7.228 -22.604
C 181.947 5.666 -2.447
O 181.044 6.042 -1.824
O 182.851 5.291 -3.070
C 124.850 13.515 -11.618
O 124.708 12.425 -11.249
O 124.992 14.606 -11.987
C 175.511 9.719 -28.326
O 176.630 10.002 -28.439
O 174.392 9.435 -28.213
C 98.363 26.250 -0.771
O 99.237 26.027 -0.041
O 97.490 26.472 -1.502
C 145.174 4.904 -3.170
O 144.433 4.500 -2.374
O 145.914 5.308 -3.966
C 99.338 17.425 -21.635
O 98.501 17.400 -20.831
O 100.174 17.450 -22.438
C 211.241 8.922 -22.826
O 210.435 9.478 -22.204
O 212.047 8.367 -23.448
C 99.796 13.732 -19.153
O 99.433 14.109 -18.118
O 100.159 13.354 -20.188
C 62.625 30.209 -18.820
O 62.299 30.396 -19.918
O 62.951 30.021 -17.723
C 152.136 12.637 -0.642
O 151.071 12.930 -0.996
O 153.201 12.343 -0.287
C 97.917 4.788 -22.502
O 97.184 5.464 -21.910
O 98.650 4.111 -23.095
C 151.575 10.670 -23.602
O 151.568 10.285 -24.697
O 151.582 11.054 -22.508
C 101.106 16.184 -8.919
O 100.877 15.054 -8.793
O 101.336 17.314 -9.045
C 186.001 25.992 -23.341
O 185.812 25.070 -24.018
O 186.191 26.914 -22.663
C 152.084 18.511 -5.028
O 151.643 17.440 -5.098
O 152.525 19.582 -4.959
C 187.051 22.871 -30.725
O 187.898 23.648 -30.562
O 186.205 22.095 -30.889
C 214.899 8.422 -0.379
O 214.806 9.532 -0.054
O 214.992 7.313 -0.704
C 187.683 14.838 -27.697
O 188.313 15.743 -27.338
O 187.053 13.932 -28.056
C 116.393 25.719 -25.222
O 116.038 25.516 -26.307
O 116.747 25.923 -24.136
C 104.725 26.177 -19.439
O 103.931 26.714 -18.785
O 105.518 25.640 -20.093
C 187.319 23.531 -19.677
O 187.183 24.008 -20.726
O 187.455 23.053 -18.629
C 100.152 26.359 -6.807
O 100.201 25.716 -5.843
O 100.103 27.002 -7.771
C 155.946 20.668 -30.546
O 155.118 19.858 -30.477
O 156.774 21.477 -30.616
C 184.295 28.457 -15.853
O 184.299 28.401 -17.012
O 184.290 28.514 -14.694
C 100.044 8.911 -29.137
O 99.037 8.378 -28.918
O 101.050 9.444 -29.357
C 111.899 1.558 -10.121
O 111.980 2.093 -11.147
O 111.819 1.022 -9.095
C 107.894 27.781 -14.812
O 108.397 28.782 -14.511
O 107.391 26.780 -15.112
C 151.524 13.069 -10.506
O 150.901 12.708 -9.597
O 152.147 13.429 -11.416
C 183.385 15.678 -27.135
O 183.721 15.671 -26.025
O 183.049 15.684 -28.246
C 97.506 12.107 -28.961
O 96.577 12.360 -29.608
O 98.435 11.854 -28.314
C 211.467 10.601 -11.046
O 211.404 10.814 -9.907
O 211.531 10.389 -12.184
C 105.096 25.772 -13.326
O 105.497 24.684 -13.319
O 104.695 26.860 -13.334
C 101.330 23.316 -8.917
O 101.294 23.017 -10.037
O 101.366 23.614 -7.796
C 100.305 27.038 -20.741
O 99.994 26.851 -21.843
O 100.616 27.224 -19.639
C 100.642 12.404 -12.578
O 101.362 11.690 -12.013
O 99.923 13.118 -13.142
C 103.196 28.960 -15.847
O 104.230 28.936 -16.372
O 102.161 28.985 -15.322
C 178.818 21.841 -25.704
O 177.720 21.465 -25.711
O 179.915 22.217 -25.698
C 179.125 12.306 -23.438
O 178.268 12.394 -24.214
O 179.983 12.219 -22.662
C 135.586 0.427 -3.883
O 134.645 31.181 -3.846
O 136.526 1.104 -3.921
C 104.551 22.919 -6.351
O 104.124 23.178 -7.398
O 104.979 22.659 -5.305
C 98.067 10.522 -0.748
O 98.480 9.479 -0.452
O 97.654 11.565 -1.045
C 161.670 22.522 -18.567
O 161.415 21.678 -19.321
O 161.924 23.365 -17.811
C 187.415 20.152 -22.102
O 186.884 19.141 -22.303
O 187.946 21.163 -21.900
C 120.905 13.474 -1.015
O 120.346 14.487 -1.089
O 121.465 12.460 -0.940
C 109.807 0.474 -21.293
O 110.406 1.126 -20.544
O 109.208 31.254 -22.042
C 102.880 11.138 -5.151
O 103.572 10.530 -5.856
O 102.188 11.746 -4.446
C 126.521 19.369 -19.938
O 127.144 18.540 -20.457
O 125.898 20.198 -19.418
C 129.439 6.995 -10.826
O 129.265 6.528 -9.779
O 129.613 7.462 -11.874
C 108.549 23.516 -7.386
O 107.875 22.639 -7.734
O 109.223 24.394 -7.038
C 185.855 4.425 -28.272
O 185.910 5.402 -28.896
O 185.800 3.449 -27.649
C 68.018 21.763 -3.561
O 67.118 22.279 -4.082
O 68.917 21.248 -3.040
C 107.009 12.311 -5.128
O 107.805 12.939 -5.692
O 106.214 11.682 -4.564
C 184.668 10.791 -16.182
O 183.757 11.080 -16.840
O 185.579 10.502 -15.525
C 118.746 5.099 -23.619
O 119.059 4.964 -22.511
O 118.432 5.234 -24.728
C 164.866 8.618 -0.152
O 164.379 9.532 -31.061
O 165.353 7.704 -0.674
C 134.220 14.000 -22.746
O 134.061 13.082 -23.437
O 134.379 14.918 -22.055
C 108.772 28.482 -3.405
O 108.246 29.473 -3.696
O 109.298 27.490 -3.113
C 106.634 17.153 -25.869
O 107.225 18.003 -26.392
O 106.043 16.303 -25.346
C 159.562 5.866 -27.188
O 158.851 6.465 -27.881
O 160.273 5.266 -26.494
C 187.832 22.437 -2.698
O 188.414 21.588 -3.234
O 187.251 23.285 -2.161
C 97.428 23.380 -7.579
O 96.762 23.594 -6.654
O 98.095 23.166 -8.504
C 178.981 30.677 -30.671
O 179.580 30.355 -29.731
O 178.382 30.998 -0.178
C 120.325 13.773 -11.030
O 120.994 12.949 -11.499
O 119.656 14.596 -10.562
C 180.176 30.967 -6.142
O 180.840 30.031 -6.309
O 179.512 0.471 -5.975
C 176.851 19.838 -19.303
O 176.705 20.939 -18.966
O 176.998 18.738 -19.639
C 182.062 3.072 -29.151
O 182.682 3.011 -28.173
O 181.442 3.134 -30.130
C 159.737 0.855 -19.420
O 159.912 1.925 -19.007
O 159.562 31.218 -19.833
C 121.152 0.018 -1.701
O 121.606 30.401 -1.503
O 120.699 1.067 -1.899
C 185.144 31.391 -15.145
O 184.607 31.099 -16.131
O 185.681 0.251 -14.159
C 112.844 29.116 -11.043
O 112.467 28.101 -11.457
O 113.222 30.132 -10.629
C 100.372 30.728 -19.622
O 99.316 30.505 -19.196
O 101.428 30.951 -20.047
C 174.821 15.650 -20.231
O 175.936 15.894 -20.435
O 173.705 15.407 -20.026
C 151.591 27.669 -18.531
O 150.759 28.455 -18.344
O 152.423 26.883 -18.717
C 104.281 0.411 -2.067
O 104.781 30.930 -2.579
O 103.782 1.324 -1.555
C 132.112 12.799 -18.585
O 133.263 12.946 -18.608
O 130.962 12.651 -18.564
C 98.734 18.498 -9.499
O 98.623 17.730 -10.361
O 98.844 19.266 -8.637
C 178.870 26.040 -6.666
O 177.995 26.729 -6.342
O 179.745 25.350 -6.991
C 131.925 16.880 -5.101
O 131.135 16.262 -5.683
O 132.715 17.498 -4.518
C 109.774 23.325 -25.658
O 109.608 24.201 -24.916
O 109.941 22.448 -26.399
C 108.107 2.928 -6.793
O 107.190 2.893 -6.083
O 109.023 2.962 -7.503
C 147.281 19.969 -23.512
O 146.848 20.831 -22.867
O 147.715 19.108 -24.156
C 181.501 17.946 -3.616
O 181.339 18.467 -2.592
O 181.662 17.425 -4.640
C 68.594 31.000 -11.699
O 68.671 0.518 -11.039
O 68.517 30.050 -12.360
C 99.938 23.003 -0.753
O 100.466 22.632 -31.221
O 99.409 23.373 -1.717
C 98.728 24.589 -11.212
O 97.902 23.785 -11.337
O 99.555 25.393 -11.087
C 145.474 24.949 -30.237
O 145.051 23.974 -29.773
O 145.898 25.924 -30.700
C 97.131 7.431 -25.604
O 97.616 6.853 -24.723
O 96.645 8.009 -26.485
C 114.406 20.679 -1.981
O 114.157 20.694 -3.114
O 114.654 20.664 -0.848
C 117.938 24.968 -13.609
O 117.930 25.919 -12.946
O 117.946 24.016 -14.273
C 127.880 13.182 -6.281
O 128.956 12.845 -6.553
O 126.804 13.519 -6.009
C 188.122 4.732 -25.614
O 187.219 5.274 -25.130
O 189.026 4.190 -26.099
C 189.203 24.682 -14.410
O 188.544 25.120 -15.258
O 189.863 24.244 -13.562
C 102.993 15.121 -6.075
O 104.031 14.631 -6.245
O 101.956 15.612 -5.905
C 103.700 20.260 -10.838
O 103.958 19.916 -9.760
O 103.442 20.604 -11.915
C 188.689 28.546 -14.493
O 189.120 27.682 -13.852
O 188.257 29.411 -15.135
C 134.718 21.402 -13.818
O 134.700 21.212 -14.962
O 134.736 21.592 -12.674
C 144.776 21.165 -13.548
O 145.673 21.896 -13.476
O 143.878 20.433 -13.619
C 103.742 22.454 -0.874
O 102.982 23.310 -1.063
O 104.503 21.599 -0.686
C 186.855 23.947 -9.878
O 187.308 23.904 -10.945
O 186.402 23.991 -8.811
C 182.374 14.463 -3.112
O 182.918 15.357 -2.612
O 181.830 13.568 -3.612
C 122.069 10.338 -9.011
O 122.132 9.321 -9.567
O 122.006 11.354 -8.456
C 112.741 25.162 -23.998
O 112.638 25.097 -25.151
O 112.844 25.227 -22.844
C 180.248 1.268 -2.553
O 180.004 2.366 -2.269
O 180.492 0.170 -2.838
C 152.167 30.126 -31.311
O 152.499 30.410 -30.237
O 151.834 29.843 -0.954
C 162.422 8.450 -19.237
O 162.591 7.404 -19.709
O 162.253 9.496 -18.764
C 68.058 20.632 -29.177
O 67.069 21.232 -29.087
O 69.047 20.032 -29.267
C 114.070 31.243 -19.806
O 114.714 30.960 -18.883
O 113.427 0.094 -20.729
C 104.683 15.530 -28.840
O 103.597 15.806 -29.140
O 105.769 15.255 -28.540
C 117.981 2.112 -19.007
O 116.943 1.816 -19.433
O 119.018 2.408 -18.581
C 63.227 21.126 -20.544
O 62.670 22.139 -20.634
O 63.784 20.113 -20.454
C 122.169 15.542 -19.184
O 122.964 16.356 -19.413
O 121.374 14.729 -18.956
C 181.255 8.010 -23.342
O 180.710 7.121 -22.834
O 181.801 8.898 -23.851
C 184.906 2.878 -17.272
O 185.339 2.774 -16.201
O 184.472 2.982 -18.343
C 185.325 26.609 -3.992
O 185.228 27.763 -4.060
O 185.421 25.455 -3.924
C 231.340 8.837 -23.501
O 231.666 9.802 -24.056
O 231.015 7.872 -22.946
C 110.016 30.296 -7.671
O 109.869 29.803 -8.710
O 110.163 30.789 -6.631
C 177.404 3.484 -0.183
O 178.053 4.437 -0.060
O 176.754 2.531 -0.306
C 72.416 7.188 -12.219
O 73.280 7.377 -11.468
O 71.552 7.000 -12.969
C 121.516 15.430 -25.996
O 120.983 15.539 -24.972
O 122.050 15.320 -27.020
C 183.527 20.282 -16.042
O 183.526 21.330 -15.545
O 183.527 19.234 -16.539
C 157.621 15.667 -6.383
O 158.458 14.937 -6.718
O 156.784 16.397 -6.047
C 168.830 12.161 -26.931
O 167.719 12.159 -27.262
O 169.942 12.163 -26.600
C 185.132 23.783 -15.468
O 184.506 24.425 -14.733
O 185.759 23.140 -16.204
C 108.007 0.935 -18.059
O 107.874 1.579 -19.015
O 108.140 0.290 -17.104
C 98.621 12.644 -5.234
O 99.203 13.595 -5.553
O 98.040 11.692 -4.914
C 149.964 3.772 -4.265
O 149.102 3.926 -5.026
O 150.825 3.617 -3.504
C 97.465 30.845 -29.069
O 97.703 30.482 -30.144
O 97.227 31.208 -27.993
C 56.653 17.094 -19.418
O 55.906 16.338 -18.953
O 57.400 17.850 -19.883
C 187.574 20.646 -16.106
O 188.467 21.284 -15.731
O 186.681 20.008 -16.481
C 111.353 26.865 -5.678
O 110.858 27.864 -5.997
O 111.848 25.865 -5.358
C 174.611 9.102 -21.615
O 175.055 8.581 -22.551
O 174.168 9.623 -20.678
C 184.148 29.424 -6.784
O 183.471 28.522 -7.055
O 184.825 30.326 -6.513
C 155.877 10.007 -20.661
O 156.991 10.328 -20.716
O 154.764 9.685 -20.606
C 163.516 10.277 -22.129
O 163.466 9.186 -22.519
O 163.566 11.369 -21.740
C 109.014 28.945 -18.378
O 109.430 29.572 -19.261
O 108.599 28.317 -17.494
C 169.394 8.772 -25.329
O 170.103 8.073 -24.734
O 168.686 9.472 -25.924
C 98.719 21.188 -22.184
O 98.660 20.078 -22.515
O 98.778 22.299 -21.854
C 101.552 5.860 -15.660
O 101.438 4.717 -15.824
O 101.665 7.002 -15.495
C 119.108 18.033 -20.195
O 117.982 17.756 -20.234
O 120.234 18.309 -20.156
C 154.564 21.229 -7.325
O 153.417 21.355 -7.199
O 155.710 21.104 -7.451
C 93.095 25.286 -9.196
O 91.985 24.949 -9.202
O 94.205 25.623 -9.191
C 97.441 1.235 -6.833
O 97.163 0.184 -6.429
O 97.719 2.286 -7.238
C 176.365 24.991 -9.872
O 176.563 25.127 -8.738
O 176.167 24.854 -11.007
C 186.416 5.673 -13.126
O 186.071 6.674 -13.601
O 186.761 4.673 -12.651
C 184.769 21.980 -25.142
O 183.760 22.199 -25.670
O 185.778 21.761 -24.613
C 229.714 30.038 -7.453
O 229.052 29.308 -6.842
O 230.375 30.768 -8.065
C 222.912 6.841 -23.310
O 222.864 6.113 -22.407
O 222.959 7.568 -24.212
C 122.289 24.182 -19.445
O 123.159 24.834 -19.848
O 121.418 23.530 -19.042
C 151.559 4.245 -22.328
O 152.239 4.529 -23.224
O 150.878 3.962 -21.432
C 183.303 15.294 -6.726
O 183.403 14.744 -5.710
O 183.203 15.844 -7.743
C 134.733 29.654 -7.376
O 135.694 29.462 -6.756
O 133.771 29.846 -7.995
C 149.346 2.881 -18.085
O 149.284 4.027 -17.915
O 149.409 1.736 -18.255
C 103.878 17.043 -2.366
O 103.025 17.247 -3.125
O 104.731 16.839 -1.607
C 111.295 29.729 -14.559
O 111.086 30.293 -13.567
O 111.504 29.166 -15.551
C 128.564 6.204 -14.807
O 128.521 6.944 -15.700
O 128.606 5.465 -13.914
C 188.242 31.065 -24.639
O 189.020 0.473 -24.818
O 187.463 30.224 -24.459
C 98.052 0.174 -12.082
O 98.772 0.077 -11.178
O 97.332 0.271 -12.987
C 183.707 25.733 -11.967
O 183.657 24.743 -11.365
O 183.757 26.723 -12.569
C 97.670 6.290 -31.230
O 96.522 6.369 0.052
O 98.817 6.212 -31.081
C 138.875 21.959 -30.135
O 139.993 21.911 -30.442
O 137.758 22.008 -29.827
C 101.107 29.169 -10.749
O 102.128 28.998 -10.226
O 100.086 29.341 -11.272
C 154.440 4.893 -28.005
O 154.614 4.262 -27.048
O 154.266 5.525 -28.963
C 181.581 13.096 -25.228
O 181.709 12.233 -25.992
O 181.452 13.959 -24.463
C 169.379 5.778 -1.859
O 169.008 6.746 -2.380
O 169.751 4.811 -1.337
C 101.583 26.906 -1.972
O 101.035 27.427 -2.852
O 102.131 26.385 -1.092
C 160.813 0.101 -1.377
O 160.325 30.498 -1.188
O 161.300 1.137 -1.566
C 97.965 25.618 -24.007
O 97.512 26.596 -24.437
O 98.417 24.640 -23.578
C 183.947 11.313 -19.820
O 182.840 11.633 -19.952
O 185.054 10.993 -19.687
C 101.636 25.429 -17.559
O 101.595 26.380 -16.894
O 101.677 24.479 -18.223
C 99.385 17.024 -5.869
O 99.359 16.924 -7.024
O 99.410 17.123 -4.713
C 176.205 21.523 -14.201
O 176.691 21.262 -15.221
O 175.720 21.784 -13.180
C 112.739 13.600 -23.873
O 111.827 13.021 -24.296
O 113.652 14.178 -23.451
C 168.268 5.221 -15.361
O 169.267 4.876 -15.841
O 167.270 5.567 -14.882
C 124.367 4.458 -3.809
O 124.577 3.583 -3.077
O 124.156 5.332 -4.541
C 171.035 20.543 -7.522
O 171.273 19.587 -8.135
O 170.797 21.498 -6.909
C 99.404 0.589 -0.843
O 99.900 31.378 -1.671
O 98.909 1.232 -31.447
C 102.590 26.394 -29.274
O 102.109 27.449 -29.286
O 103.071 25.338 -29.263
C 185.719 12.038 -3.586
O 185.938 13.051 -4.107
O 185.499 11.025 -3.066
C 138.771 17.820 -8.550
O 138.441 17.528 -7.476
O 139.101 18.111 -9.623
C 101.631 0.872 -12.314
O 100.872 1.674 -12.670
O 102.390 0.070 -11.959
C 168.276 8.773 -21.962
O 167.179 8.395 -21.998
O 169.372 9.151 -21.926
C 165.092 -0.010 -2.459
O 165.045 0.082 -3.614
O 165.139 31.330 -1.303
C 143.716 29.232 -31.087
O 143.994 29.692 -0.682
O 143.438 28.771 -30.059
C 189.433 14.854 -9.330
O 188.538 15.512 -8.997
O 190.328 14.196 -9.664
C 233.482 25.948 -22.773
O 233.677 25.579 -21.691
O 233.287 26.317 -23.855
C 138.741 27.424 -13.805
O 137.584 27.351 -13.812
O 139.899 27.496 -13.798
C 114.344 4.203 -30.262
O 113.978 3.126 -30.033
O 114.711 5.279 -30.490
C 162.323 12.433 -25.054
O 161.508 12.383 -24.229
O 163.137 12.483 -25.879
C 164.045 2.180 -18.618
O 164.528 2.978 -19.308
O 163.563 1.383 -17.928
C 104.835 30.119 -20.193
O 103.861 29.800 -19.650
O 105.810 30.438 -20.735
C 105.653 31.021 -29.857
O 106.017 31.285 -28.788
O 105.289 30.758 -30.927
C 187.397 13.118 -0.442
O 187.996 14.094 -0.624
O 186.798 12.141 -0.260
C 103.102 13.872 -16.875
O 102.943 14.526 -15.931
O 103.261 13.218 -17.820
C 185.351 9.209 -22.098
O 186.392 9.163 -21.587
O 184.311 9.255 -22.608
C 170.408 25.180 -28.563
O 169.306 25.370 -28.257
O 171.511 24.990 -28.870
C 118.920 9.247 -12.209
O 119.500 8.264 -12.004
O 118.340 10.231 -12.415
C 103.432 6.663 -10.240
O 103.049 7.684 -9.846
O 103.816 5.641 -10.634
C 126.332 26.623 -25.616
O 126.838 25.587 -25.739
O 125.825 27.659 -25.493
C 183.285 18.397 -23.843
O 182.737 17.394 -24.042
O 183.833 19.399 -23.644
C 105.506 4.875 -22.535
O 105.006 4.317 -23.421
O 106.006 5.432 -21.650
C 126.191 23.425 -8.618
O 125.333 24.171 -8.389
O 127.050 22.679 -8.846
C 107.391 27.514 -11.042
O 108.252 27.621 -11.813
O 106.531 27.408 -10.271
C 133.245 4.101 -28.262
O 132.258 4.262 -27.675
O 134.232 3.939 -28.849
C 111.321 20.625 -22.728
O 112.014 19.832 -22.243
O 110.627 21.418 -23.213
C 184.999 21.000 -12.136
O 184.346 20.419 -11.373
O 185.653 21.581 -12.898
C 187.751 19.155 -12.772
O 188.135 19.486 -11.728
O 187.368 18.824 -13.815
C 124.673 27.730 -19.424
O 124.863 27.375 -20.512
O 124.482 28.085 -18.336
C 144.113 28.306 -3.314
O 145.149 27.828 -3.105
O 143.077 28.785 -3.524
C 174.984 20.414 -5.340
O 175.454 21.475 -5.322
O 174.514 19.354 -5.358
C 107.019 6.060 -1.522
O 106.021 6.214 -2.094
O 108.016 5.907 -0.950
C 184.499 17.234 -14.438
O 183.572 17.421 -13.767
O 185.427 17.046 -15.109
C 103.597 26.269 -9.830
O 103.302 26.702 -8.795
O 103.891 25.837 -10.865
C 162.611 17.152 -16.466
O 162.529 17.372 -15.330
O 162.694 16.932 -17.602
C 95.337 27.724 -6.866
O 96.025 27.169 -6.114
O 94.650 28.278 -7.617
C 119.686 21.744 -10.689
O 119.513 22.602 -11.450
O 119.858 20.886 -9.928
C 176.780 27.541 -31.062
O 177.835 27.329 -0.063
O 175.725 27.753 -30.629
C 168.012 12.897 -21.069
O 168.128 11.775 -20.800
O 167.897 14.020 -21.337
C 183.336 8.452 -3.136
O 183.036 9.240 -3.933
O 183.636 7.665 -2.339
C 153.307 10.459 -29.161
O 154.351 10.875 -28.873
O 152.263 10.044 -29.450
C 186.094 8.630 -30.193
O 184.968 8.611 -29.915
O 187.220 8.650 -30.472
C 153.293 20.422 -22.550
O 153.236 21.523 -22.192
O 153.351 19.320 -22.909
C 105.672 14.239 -13.911
O 105.650 14.220 -12.751
O 105.694 14.257 -15.070
C 179.585 22.535 -1.554
O 179.142 21.515 -1.881
O 180.029 23.556 -1.226
C 186.413 19.634 -28.398
O 186.988 19.479 -29.393
O 185.838 19.790 -27.402
C 152.522 1.922 -17.023
O 152.739 2.922 -17.570
O 152.305 0.923 -16.477
C 155.888 1.477 -19.738
O 156.083 1.528 -18.596
O 155.694 1.425 -20.881
C 174.728 23.417 -2.947
O 173.614 23.174 -3.161
O 175.842 23.659 -2.734
C 182.822 19.104 -30.002
O 182.270 18.360 -30.700
O 183.373 19.849 -29.304
C 103.833 2.979 -14.744
O 103.053 2.259 -15.212
O 104.613 3.699 -14.277
C 111.054 25.406 -17.209
O 110.067 25.121 -17.747
O 112.042 25.690 -16.671
C 138.117 4.822 -7.614
O 138.595 5.071 -6.587
O 137.640 4.572 -8.642
C 185.396 4.550 -7.689
O 184.995 4.004 -6.747
O 185.798 5.095 -8.630
C 99.491 18.509 -0.925
O 98.374 18.480 -1.236
O 100.609 18.538 -0.614
C 188.727 13.093 -22.897
O 187.742 12.935 -22.305
O 189.712 13.251 -23.489
C 120.688 20.556 -22.316
O 119.859 19.932 -22.836
O 121.516 21.180 -21.796
C 184.336 27.101 -28.305
O 183.367 27.200 -28.935
O 185.305 27.002 -27.675
C 188.520 25.853 -1.273
O 187.519 26.185 -0.790
O 189.521 25.521 -1.755
C 180.346 19.107 -13.708
O 180.081 18.711 -12.651
O 180.612 19.503 -14.766
C 184.792 28.855 -10.663
O 184.450 29.707 -11.373
O 185.134 28.004 -9.953
C 100.953 6.288 -26.011
O 101.079 5.231 -26.472
O 100.828 7.345 -25.549
C 115.868 6.312 -21.352
O 115.719 5.339 -21.967
O 116.017 7.284 -20.738
C 99.580 7.845 -6.447
O 100.575 7.344 -6.121
O 98.586 8.345 -6.772
C 97.617 20.472 -5.501
O 97.473 20.587 -6.646
O 97.762 20.358 -4.356
C 191.138 21.500 -15.358
O 191.022 21.458 -14.205
O 191.255 21.542 -16.512
C 101.230 8.453 -2.638
O 102.353 8.432 -2.348
O 100.107 8.474 -2.929
C 51.870 2.219 -21.765
O 52.456 2.482 -20.799
O 51.285 1.956 -22.731
C 123.064 18.128 -21.632
O 122.547 17.215 -22.126
O 123.582 19.041 -21.138
3933
Lattice="31.432 0 0 0 31.432 0 0 0 236.216" Properties=species:S:1:pos:R:3 timestep=36155000
O 259.165 0.666 -10.438
O 24.914 14.169 -17.811
O 68.135 22.282 -18.890
O 230.364 11.578 -23.021
O 46.024 11.604 -17.407
O 54.543 15.121 -27.395
O 240.991 25.296 -22.412
O 61.947 16.630 -22.965
O 24.059 13.070 -11.806
O 225.358 23.881 -10.428
O 27.919 29.348 -1.155
O 224.322 25.954 -12.029
O 25.917 20.596 -28.883
O 224.570 7.262 -6.003
O 75.776 18.035 -12.777
O 52.769 9.426 -23.934
O 65.238 28.092 -19.045
O 60.493 14.838 -21.521
O 255.915 5.079 -26.147
O 54.825 11.540 -13.735
O 254.895 23.226 -4.632
O 228.181 25.711 -20.950
O 26.673 28.103 -14.514
O 228.682 4.603 -15.253
O 232.640 16.819 -3.707
O 226.236 5.174 -7.165
O 73.520 3.808 -30.982
O 234.219 10.668 -21.300
O 63.472 14.595 -19.418
O 64.965 26.367 -15.733
O 42.927 17.044 -28.705
O 240.637 5.764 -7.783
O 244.529 2.927 -12.900
O 58.347 5.422 -5.692
O 39.683 0.689 -18.497
O 247.366 1.346 -22.319
O 225.951 3.864 -30.938
O 250.738 21.340 -5.298
O 79.353 25.890 -25.745
O 228.180 14.191 -8.550
O 69.026 23.885 -23.611
O 51.957 2.131 -13.672
O 46.000 6.782 -27.802
O 254.313 18.772 -16.195
O 58.913 14.290 -8.900
O 255.406 23.099 -7.466
O 64.863 2.102 -29.128
O 226.554 23.759 -25.428
O 71.489 11.643 -18.109
O 38.329 31.262 -11.395
O 236.274 20.258 -27.141
O 257.018 9.613 -29.017
O 239.748 14.194 -11.767
O 254.454 27.613 -3.734
O 232.963 16.685 -17.940
O 65.064 2.955 -3.443
O 251.032 4.992 -18.597
O 63.406 7.347 -26.937
O 245.767 13.499 -19.542
O 238.756 13.800 -28.567
O 45.185 10.825 -23.524
O 45.861 23.381 -12.648
O 72.207 15.185 -23.276
O 255.685 8.739 -5.852
O 28.492 6.925 -28.336
O 243.530 18.442 -0.478
O 258.320 7.403 -4.567
O 229.097 30.350 -28.423
O 71.502 1.787 -1.061
O 258.510 27.303 -5.645
O 33.283 18.328 -6.784
O 237.390 17.213 -5.656
O 241.710 8.556 -19.298
O 246.392 27.830 -18.259
O 34.557 7.874 -26.096
O 61.273 8.351 -25.324
O 46.886 0.928 -24.661
O 223.669 0.381 -3.886
O 48.806 14.050 -21.096
O 70.219 2.221 -26.991
O 75.255 7.510 -8.014
O 249.798 27.425 -23.665
O 48.019 15.857 -24.361
O 26.506 17.832 -21.445
O 257.724 25.054 -12.121
O 227.340 23.134 -21.357
O 32.574 14.527 -11.024
O 41.548 8.971 -2.749
O 70.163 9.531 -27.059
O 54.027 26.862 -10.185
O 70.577 3.690 -10.032
O 229.189 21.311 -22.625
O 71.993 18.297 -6.520
O 23.994 6.003 -0.720
O 230.819 19.384 -14.698
O 245.145 29.507 -28.754
O 250.243 21.931 -25.233
O 74.871 19.317 -3.918
O 33.035 21.607 -14.639
O 244.782 2.120 -21.521
O 62.865 18.989 -19.041
O 76.755 29.940 -26.148
O 230.470 12.249 -29.422
O 43.474 16.023 -19.969
O 223.859 24.439 -26.265
O 71.758 0.972 -20.943
O 241.274 8.530 -24.262
O 226.675 30.952 -8.824
O 29.434 16.084 -19.363
O 48.671 0.160 -26.616
O 72.292 29.514 -9.571
O 58.440 18.694 -4.072
O 57.427 22.997 -4.755
O 36.672 19.304 -5.447
O 57.191 14.193 -6.279
O 50.972 25.170 -31.059
O 252.870 30.114 -12.842
O 247.988 19.666 -17.985
O 258.442 22.451 -10.954
O 54.110 0.738 -14.995
O 32.731 19.416 -10.215
O 28.917 9.670 -5.763
O 46.229 27.533 -11.062
O 223.804 26.509 -14.679
O 26.078 31.347 -28.613
O 66.286 26.830 -10.792
O 24.279 3.518 -10.976
O 242.771 30.588 -13.377
O 244.527 11.238 -20.377
O 224.985 5.458 -16.656
O 228.919 25.953 -5.042
O 25.619 25.797 -26.239
O 33.108 3.378 -13.461
O 30.399 4.407 -13.386
O 226.608 19.014 -27.244
O 24.983 17.666 -14.141
O 38.975 2.466 -14.251
O 26.522 7.906 -8.925
O 43.509 11.025 -0.190
O 237.112 26.611 -20.291
O 44.116 10.268 -13.300
O 31.021 16.440 -9.515
O 54.615 16.321 -20.203
O 54.045 1.313 -30.482
O 24.649 4.923 -14.495
O 49.264 18.790 -28.335
O 229.280 21.548 -15.927
O 70.004 11.043 -29.220
O 246.034 31.348 -27.029
O 42.619 31.079 -24.452
O 26.955 24.394 -29.428
O 30.191 30.108 -4.902
O 254.034 8.988 -12.958
O 34.517 28.039 -23.073
O 54.708 8.611 -28.101
O 225.223 20.994 -24.968
O 68.841 9.034 -19.778
O 48.720 0.682 -5.587
O 48.084 29.707 -13.531
O 252.683 2.547 -15.477
O 69.968 16.808 -27.752
O 27.333 16.480 -7.197
O 50.536 15.465 -2.856
O 257.849 25.819 -0.343
O 253.304 12.108 -3.153
O 51.644 23.365 -13.341
O 61.004 20.514 -27.665
O 249.131 13.775 -24.002
O 245.616 25.256 -7.455
O 68.883 29.930 -5.817
O 24.333 22.319 -7.237
O 41.962 16.265 -6.367
O 255.258 1.865 -16.843
O 233.927 3.769 -2.299
O 57.221 27.601 -10.107
O 236.344 18.827 -1.933
O 41.785 27.390 -22.550
O 225.664 1.030 -13.941
O 76.470 20.361 -1.907
O 39.103 17.821 -12.664
O 39.769 10.997 -2.157
O 33.769 8.420 -5.457
O 25.166 26.110 -13.024
O 225.928 8.632 -25.670
O 251.433 7.336 -28.975
O 34.691 30.613 -24.708
O 33.303 12.752 -5.335
O 251.001 24.878 -27.019
O 252.010 29.213 -27.059
O 36.203 29.484 -30.886
O 34.285 22.548 -26.399
O 228.622 7.465 -24.435
O 77.433 5.305 -12.140
O 64.699 16.512 -1.672
O 55.454 9.216 -6.684
O 47.128 10.175 -5.471
O 254.480 29.669 -23.033
O 249.747 1.506 -25.356
O 56.060 2.648 -27.945
O 78.278 8.064 -10.555
O 247.300 13.839 -6.679
O 35.418 6.642 -16.557
O 73.348 23.165 -6.833
O 242.766 20.785 -21.226
O 233.024 8.546 -19.843
O 220.959 28.445 -14.689
O 52.918 23.629 -2.590
O 244.451 6.642 -25.988
O 232.660 23.986 -22.519
O 35.251 10.800 -1.487
O 220.846 26.970 -22.637
O 231.933 23.692 -4.349
O 36.162 15.931 -11.353
O 73.046 3.324 -8.809
O 52.588 23.423 -20.848
O 220.662 21.003 -6.843
O 239.918 13.779 -16.656
O 250.999 23.877 -23.292
O 243.851 27.298 -8.070
O 24.314 9.362 -10.005
O 241.444 9.229 -28.426
O 38.841 24.619 -2.669
O 78.710 10.761 -9.002
O 34.296 10.548 -7.273
O 32.280 27.071 -0.343
O 225.738 1.921 -16.318
O 42.329 25.318 -11.581
O 256.481 11.751 -11.078
O 59.851 5.587 -18.914
O 225.185 9.639 -21.827
O 251.142 16.613 -2.502
O 66.578 0.414 -18.312
O 44.737 29.921 -15.329
O 40.255 5.293 -11.821
O 234.056 2.684 -27.276
O 75.157 4.882 -2.009
O 239.197 24.657 -10.782
O 256.960 17.727 -25.772
O 52.563 16.168 -30.219
O 39.802 7.711 -4.509
O 57.698 4.962 -12.312
O 47.414 2.733 -8.789
O 257.355 4.509 -10.290
O 45.964 12.306 -9.321
O 29.785 17.654 -22.357
O 60.962 1.985 -11.273
O 251.114 20.922 -22.422
O 238.878 7.105 -21.684
O 255.912 1.769 -7.174
O 222.422 5.422 -14.891
O 26.055 26.762 -8.588
O 29.767 11.858 -2.315
O 219.758 21.600 -31.293
O 229.388 3.069 -13.135
O 236.959 26.312 -27.727
O 250.810 0.418 -27.613
O 43.444 11.985 -4.890
O 251.995 23.015 -12.519
O 225.219 22.937 -22.866
O 257.101 29.111 -22.488
O 222.710 29.628 -0.176
O 24.880 6.149 -7.341
O 247.862 11.798 -18.707
O 34.645 13.005 -23.605
O 244.779 18.207 -7.989
O 51.122 6.003 -28.554
O 39.021 21.911 -29.468
O 37.944 3.709 -27.608
O 64.038 19.227 -14.745
O 49.641 27.213 -19.695
O 52.474 17.368 -27.625
O 72.648 29.903 -6.857
O 245.919 24.953 -25.473
O 69.194 17.527 -20.334
O 55.748 5.464 -28.092
O 234.362 28.687 -30.665
O 52.260 31.040 -24.271
O 257.145 20.434 -9.653
O 30.997 24.056 -28.368
O 41.259 29.860 -12.789
O 30.555 19.291 -6.044
O 232.603 0.177 -20.918
O 79.908 27.501 -20.877
O 250.928 27.978 -18.225
O 252.610 2.957 -12.741
O 233.869 10.588 -30.987
O 31.019 6.482 -11.416
O 30.971 13.338 -15.409
O 244.398 27.910 -4.448
O 44.733 4.164 -16.369
O 76.055 2.002 -30.280
O 229.005 28.824 -2.280
O 53.456 26.300 -3.136
O 249.513 11.391 -13.027
O 237.747 23.761 -0.354
O 233.450 3.931 -20.760
O 69.877 3.352 -6.673
O 31.981 8.722 -14.615
O 71.942 30.892 -14.614
O 252.639 16.672 -13.701
O 27.666 18.496 -23.953
O 258.907 12.647 -17.790
O 32.791 28.264 -20.988
O 36.643 20.185 -10.507
O 57.372 4.743 -22.539
O 38.593 11.181 -12.718
O 248.356 2.800 -15.687
O 57.973 6.887 -20.474
O 60.144 29.959 -3.151
O 253.674 4.298 -3.389
O 252.293 24.916 -30.281
O 29.212 30.411 -22.492
O 226.794 18.614 -15.952
O 23.979 0.093 -7.757
O 255.225 10.809 -24.345
O 56.265 30.476 -17.386
O 40.549 22.632 -26.181
O 250.447 8.240 -16.550
O 255.738 12.661 -4.734
O 37.984 7.858 -10.188
O 62.591 18.755 -29.122
O 223.308 4.641 -11.109
O 255.378 15.312 -26.001
O 239.816 23.186 -13.399
O 24.185 25.911 -3.717
O 220.092 27.083 -19.950
O 57.653 15.253 -26.527
O 30.303 21.123 -10.477
O 244.974 2.008 -7.735
O 40.000 10.338 -27.918
O 76.204 19.053 -20.209
O 23.781 29.201 -0.696
O 69.061 25.969 -13.997
O 61.969 16.216 -2.550
O 36.709 22.688 -11.961
O 244.527 15.792 -18.411
O 73.640 6.069 -9.493
O 73.332 16.014 -5.826
O 44.911 26.521 -13.171
O 46.297 18.919 -13.460
O 249.363 11.014 -3.944
O 76.938 12.783 -10.234
O 64.979 4.383 -0.842
O 251.875 28.868 -3.596
O 236.024 19.267 -17.756
O 68.630 5.661 -16.327
O 241.376 27.210 -6.208
O 36.202 13.028 -30.221
O 42.197 1.425 -5.952
O 30.945 19.942 -20.889
O 74.278 20.645 -28.740
O 74.906 28.048 -4.555
O 48.094 23.285 -9.034
O 234.387 11.977 -1.942
O 251.307 28.162 -14.360
O 26.113 5.098 -22.700
O 221.001 17.323 -16.179
O 72.036 28.466 -26.432
O 221.809 16.639 -13.588
O 69.236 29.178 -28.112
O 220.878 22.464 -23.749
O 57.019 5.664 -9.831
O 26.073 11.736 -18.171
O 72.682 15.578 -18.775
O 60.233 28.334 -18.771
O 247.477 3.252 -2.641
O 229.803 18.981 -28.023
O 44.758 29.858 -11.323
O 71.357 6.511 -11.358
O 228.459 20.105 -0.504
O 59.879 12.101 -30.479
O 68.357 26.536 -16.886
O 238.484 6.976 -3.428
O 60.770 3.991 -2.494
O 245.047 28.158 -22.902
O 33.840 21.895 -17.166
O 245.360 16.386 -30.532
O 61.382 0.964 -19.792
O 245.689 0.392 -5.331
O 68.414 19.076 -13.654
O 27.864 28.618 -3.729
O 48.534 27.047 -14.007
O 223.037 17.269 -18.092
O 44.736 19.869 -10.299
O 68.450 21.588 -10.598
O 58.214 16.870 -6.287
O 43.702 5.241 -7.059
O 228.617 23.419 -5.736
O 227.894 27.154 -0.490
O 59.244 12.354 -6.529
O 258.844 13.642 -21.872
O 26.769 14.021 -3.684
O 68.868 1.535 -2.744
O 47.815 2.286 -21.003
O 250.787 6.407 -3.980
O 34.594 1.762 -10.314
O 41.069 1.565 -2.787
O 35.489 8.575 -3.099
O 37.158 31.082 -25.987
O 223.931 18.309 -27.049
O 75.952 3.293 -10.362
O 50.430 18.450 -20.203
O 253.722 7.180 -19.672
O 254.783 26.302 -6.381
O 240.482 15.411 -20.491
O 230.619 2.011 -20.375
O 225.045 16.814 -23.574
O 57.163 28.667 -7.551
O 61.610 26.724 -7.213
O 61.528 4.876 -11.227
O 32.601 3.412 -5.743
O 24.384 28.695 -28.172
O 238.840 27.242 -9.273
O 224.379 29.475 -15.091
O 258.642 30.258 -24.341
O 242.589 27.293 -30.420
O 67.556 0.806 -4.883
O 256.662 10.543 -19.961
O 37.118 14.976 -19.123
O 52.629 11.497 -3.712
O 256.929 17.750 -15.890
O 27.394 21.372 -23.331
O 234.929 20.124 -5.467
O 67.286 3.657 -11.047
O 41.937 7.998 -8.368
O 73.457 6.708 -25.983
O 73.397 0.906 -16.392
O 240.652 2.694 -28.559
O 66.291 8.646 -18.754
O 221.204 27.545 -17.124
O 73.865 30.402 -18.505
O 39.124 25.040 -26.127
O 52.241 19.882 -15.340
O 48.120 17.171 -1.796
O 250.656 13.354 -3.467
O 244.144 22.507 -10.624
O 49.763 29.169 -26.741
O 41.671 5.383 -16.465
O 229.595 14.202 -2.452
O 63.482 4.566 -13.080
O 31.293 28.228 -27.750
O 255.745 6.462 -23.686
O 27.402 13.433 -8.358
O 241.894 12.568 -8.071
O 252.426 28.277 -24.603
O 37.873 7.654 -30.808
O 231.085 18.702 -25.652
O 56.067 19.209 -26.961
O 70.633 3.630 -16.392
O 248.041 9.263 -30.738
O 55.436 7.862 -20.498
O 49.347 31.067 -30.509
O 66.063 25.770 -28.248
O 245.691 28.439 -11.090
O 32.261 12.584 -28.848
O 28.124 27.771 -23.475
O 228.347 0.424 -19.615
O 39.470 8.816 -14.341
O 257.217 26.418 -22.076
O 77.643 1.865 -15.313
O 47.949 5.604 -15.815
O 32.115 15.591 -4.455
O 253.067 24.815 -18.954
O 239.092 18.797 -23.631
O 38.147 9.216 -3.242
O 72.525 29.101 -20.491
O 244.466 6.719 -29.684
O 71.282 17.543 -30.590
O 64.558 30.084 -26.646
O 222.732 3.682 -18.637
O 33.201 18.198 -25.401
O 232.990 6.621 -14.299
O 68.933 28.632 -22.834
O 64.383 25.183 -25.445
O 26.334 22.229 -3.297
O 224.795 14.556 -25.066
O 76.300 29.101 -18.112
O 241.813 19.297 -9.505
O 227.207 9.074 -0.041
O 28.323 8.367 -24.356
O 40.638 16.951 -20.343
O 227.422 15.890 -18.865
O 51.904 8.984 -7.773
O 57.066 19.616 -0.630
O 69.834 9.485 -15.549
O 36.460 17.039 -0.915
O 34.591 18.738 -15.232
O 26.114 2.874 -6.133
O 258.134 23.327 -8.153
O 251.127 8.288 -19.277
O 72.831 15.523 -0.432
O 230.084 14.887 -22.779
O 62.543 30.415 -16.645
O 253.182 6.809 -22.657
O 68.455 1.238 -10.545
O 250.548 15.818 -10.012
O 60.053 15.803 -18.079
O 220.488 12.635 -27.683
O 34.759 20.068 -21.532
O 255.187 8.451 -17.942
O 228.165 25.828 -23.963
O 24.777 0.224 -26.352
O 71.871 28.787 -23.029
O 219.795 15.329 -6.140
O 256.802 1.596 -1.943
O 67.842 18.718 -22.487
O 41.042 4.832 -31.035
O 73.776 23.888 -22.180
O 72.286 27.426 -5.201
O 23.675 13.601 -29.098
O 58.971 9.899 -15.024
O 256.896 22.692 -26.577
O 30.387 6.717 -20.683
O 66.200 10.246 -16.390
O 30.581 24.416 -8.511
O 250.646 15.314 -17.181
O 65.354 6.553 -14.369
O 58.711 17.874 -21.655
O 74.015 13.781 -7.159
O 30.094 1.226 -8.716
O 48.910 7.660 -18.772
O 231.515 26.337 -4.392
O 254.572 25.639 -10.916
O 250.119 16.670 -21.064
O 39.082 25.516 -18.660
O 230.485 17.308 -19.211
O 252.811 13.845 -23.057
O 25.268 15.629 -20.185
O 239.154 18.098 -9.064
O 30.171 9.619 -10.357
O 248.709 27.348 -2.094
O 78.140 2.385 -12.567
O 70.773 7.724 -5.152
O 28.404 11.050 -24.268
O 74.126 25.417 -29.643
O 239.503 26.364 -26.802
O 46.571 18.547 -27.715
O 53.906 30.733 -11.868
O 39.764 29.373 -28.279
O 254.115 18.536 -25.431
O 247.802 21.662 -26.137
O 40.581 17.977 -17.867
O 44.203 8.579 -1.315
O 232.637 21.139 -26.181
O 70.046 18.303 -24.239
O 253.236 19.705 -10.938
O 52.371 29.043 -20.324
O 75.156 6.176 -5.562
O 236.259 16.464 -28.539
O 26.351 17.896 -29.791
O 252.484 12.762 -18.158
O 225.899 9.405 -14.897
O 52.913 13.255 -12.730
O 40.850 16.428 -30.274
O 49.638 3.758 -29.094
O 257.462 14.399 -9.163
O 74.328 20.569 -16.414
O 32.060 21.563 -27.586
O 59.803 22.633 -6.133
O 72.607 9.581 -25.579
O 258.235 17.387 -10.252
O 37.398 6.083 -18.496
O 238.502 7.110 -17.048
O 71.776 21.627 -20.000
O 36.358 18.264 -22.582
O 229.755 15.585 -4.960
O 38.178 23.310 -20.017
O 251.786 9.525 -30.844
O 258.508 2.373 -16.699
O 255.037 3.454 -9.119
O 76.864 9.722 -2.009
O 244.811 28.197 -0.408
O 26.854 16.331 -27.616
O 65.999 8.594 -26.941
O 49.299 24.649 -12.535
O 253.212 15.189 -9.909
O 255.277 3.603 -21.135
O 259.391 29.665 -19.439
O 41.361 11.250 -25.413
O 23.908 15.851 -11.709
O 27.026 13.433 -28.119
O 58.613 5.850 -16.389
O 222.884 17.782 -3.991
O 28.093 21.087 -20.326
O 250.286 27.529 -10.907
O 57.549 10.014 -24.382
O 53.586 3.956 -31.462
O 48.262 12.180 -18.837
O 247.598 20.144 -0.014
O 48.279 22.135 -11.876
O 76.448 22.543 -16.731
O 65.228 27.907 -22.371
O 242.172 0.624 -0.864
O 63.455 10.876 -9.932
O 228.171 12.928 -18.981
O 53.465 10.261 -15.688
O 23.909 17.399 -30.726
O 39.321 31.136 -13.935
O 222.016 29.326 -3.637
O 72.684 17.690 -24.130
O 233.026 29.901 -16.051
O 54.111 21.163 -2.428
O 44.625 2.663 -11.979
O 50.218 10.341 -2.661
O 237.023 13.909 -16.087
O 240.077 3.636 -26.003
O 72.788 6.568 -18.215
O 243.140 20.576 -14.580
O 234.542 16.469 -20.589
O 228.106 23.173 -8.485
O 59.715 8.954 -11.439
O 56.774 1.034 -15.383
O 230.404 3.181 -6.493
O 258.295 23.052 -3.071
O 74.589 28.492 -23.793
O 251.787 4.974 -16.037
O 75.021 16.993 -9.877
O 76.356 27.103 -15.636
O 28.588 10.708 -21.364
O 246.627 25.158 -17.881
O 77.522 24.079 -5.066
O 39.022 8.023 -6.977
O 235.279 0.364 -16.752
O 251.454 9.964 -21.495
O 54.389 20.628 -25.457
O 232.585 14.285 -2.501
O 255.596 6.529 -7.607
O 41.570 25.086 -23.951
O 55.301 8.512 -23.295
O 72.488 16.037 -8.791
O 238.740 20.338 -21.203
O 222.250 25.072 -20.938
O 30.863 25.314 -19.076
O 64.567 8.115 -24.245
O 224.459 19.715 -30.741
O 51.933 11.504 -6.451
O 256.383 27.705 -19.648
O 46.562 5.694 -6.255
O 246.544 9.819 -1.591
O 53.484 5.435 -2.765
O 247.223 27.257 -24.588
O 49.971 23.894 -28.793
O 49.282 16.356 -30.784
O 39.897 21.793 -1.855
O 67.133 5.631 -29.711
O 259.291 13.691 -6.026
O 248.187 23.410 -28.708
O 63.402 9.656 -16.166
O 51.386 2.480 -1.942
O 49.850 3.668 -7.942
O 46.536 11.320 -14.573
O 225.445 8.579 -28.438
O 37.447 3.768 -3.872
O 221.581 8.157 -7.438
O 222.009 22.083 -26.125
O 43.629 26.214 -25.474
O 229.644 11.155 -20.308
O 56.047 13.834 -31.263
O 67.474 5.512 -9.369
O 229.990 6.980 -15.900
O 70.790 6.936 -0.652
O 248.212 1.726 -19.211
O 254.209 3.514 -0.374
O 47.233 29.924 -6.588
O 62.579 20.875 -25.290
O 68.121 6.805 -4.493
O 36.179 18.689 -18.349
O 226.021 14.578 -29.303
O 255.492 20.748 -17.932
O 67.535 4.215 -4.378
O 33.232 15.648 -16.876
O 241.401 5.284 -11.650
O 239.792 26.501 -2.368
O 241.940 11.606 -19.874
O 257.503 9.341 -8.417
O 246.907 24.480 -14.455
O 44.801 25.043 -15.941
O 41.713 12.271 -28.740
O 60.664 22.447 -8.826
O 254.199 20.146 -4.440
O 71.959 22.026 -4.718
O 30.396 11.125 -16.941
O 56.906 28.217 -28.575
O 42.403 30.592 -27.784
O 228.643 0.860 -10.339
O 49.790 10.584 -23.284
O 220.835 8.079 -14.688
O 28.299 4.859 -18.425
O 243.559 22.087 -30.187
O 231.348 3.483 -29.650
O 243.269 3.193 -29.294
O 238.705 2.961 -19.598
O 50.350 13.110 -1.185
O 74.278 23.085 -3.138
O 31.665 2.669 -25.037
O 222.765 8.352 -12.776
O 70.342 26.739 -21.229
O 48.712 17.009 -18.569
O 258.908 9.097 -22.153
O 243.069 4.404 -22.345
O 28.800 29.093 -19.703
O 257.721 22.700 -20.852
O 34.517 28.029 -4.390
O 220.759 9.536 -23.206
O 241.326 17.174 -26.568
O 223.209 28.536 -26.478
O 39.082 13.486 -14.228
O 53.860 22.628 -16.033
O 44.323 12.015 -26.051
O 50.373 31.014 -13.518
O 62.974 5.490 -16.887
O 246.537 28.848 -2.741
O 67.707 14.291 -25.393
O 63.502 13.606 -14.940
O 225.219 16.280 -16.209
O 37.953 21.126 -17.267
O 28.195 16.137 -10.226
O 227.578 2.110 -6.033
O 32.777 23.878 -2.337
O 61.202 29.941 -29.894
O 31.194 25.400 -4.095
O 223.951 22.084 -17.888
O 76.071 26.151 -6.256
O 45.112 5.888 -13.992
O 38.589 28.176 -0.045
O 61.586 8.516 -28.458
O 31.885 1.494 -20.017
O 38.388 1.244 -3.019
O 241.439 17.841 -17.684
O 41.922 11.644 -9.901
O 51.982 5.361 -25.996
O 235.640 4.975 -24.316
O 38.300 2.332 -10.155
O 51.481 6.687 -1.122
O 58.027 0.625 -25.062
O 226.625 6.766 -14.813
O 241.329 3.162 -20.303
O 225.779 6.577 -30.586
O 43.653 8.822 -4.474
O 232.556 16.556 -25.179
O 43.151 21.282 -7.494
O 77.575 17.201 -9.182
O 237.858 15.524 -20.194
O 30.423 6.082 -30.390
O 250.258 11.247 -17.494
O 31.415 8.897 -18.354
O 239.907 14.357 -23.714
O 248.409 23.676 -19.583
O 27.451 29.301 -11.873
O 45.183 30.129 -22.652
O 56.913 3.493 -16.680
O 228.706 5.846 -19.626
O 253.403 1.069 -23.754
O 228.576 21.212 -18.509
O 237.672 9.224 -25.069
O 51.126 9.741 -13.256
O 56.572 2.767 -20.457
O 244.741 22.601 -25.809
O 29.292 17.153 -5.078
O 245.366 4.243 -30.581
O 246.951 28.855 -15.786
O 69.536 0.795 -15.383
O 249.032 0.181 -15.170
O 241.742 28.042 -3.587
O 242.171 29.115 -19.604
O 46.842 4.103 -1.023
O 224.932 30.209 -20.604
O 34.603 14.188 -1.144
O 238.592 21.608 -5.984
O 30.587 31.196 -30.143
O 54.934 4.277 -5.092
O 252.925 6.101 -12.606
O 25.239 24.513 -5.844
O 74.035 23.069 -24.764
O 255.423 31.026 -30.070
O 48.788 23.197 -1.102
O 29.041 13.498 -0.136
O 62.875 16.422 -12.341
O 33.389 12.101 -26.248
O 52.795 29.934 -14.508
O 233.234 5.013 -31.115
O 66.312 13.307 -14.486
O 69.809 16.353 -6.944
O 237.239 8.245 -8.864
O 64.410 11.399 -26.245
O 230.225 10.562 -16.723
O 27.057 21.247 -11.776
O 67.012 16.816 -15.889
O 30.200 20.471 -3.676
O 245.244 20.898 -7.908
O 37.448 5.869 -25.824
O 236.479 7.252 -23.061
O 55.355 0.115 -5.746
O 28.849 8.859 -19.464
O 28.080 24.919 -4.901
O 52.260 17.807 -1.112
O 221.288 24.807 -17.526
O 61.829 12.743 -4.343
O 76.585 15.434 -24.505
O 220.482 10.822 -20.590
O 24.576 9.131 -24.329
O 248.683 19.447 -11.545
O 253.417 29.160 -17.837
O 229.472 15.274 -15.454
O 72.023 22.628 -16.993
O 47.164 8.773 -24.123
O 40.740 9.123 -10.703
O 50.389 25.448 -9.351
O 27.504 19.860 -3.080
O 233.608 18.292 -1.370
O 227.425 30.526 -21.883
O 74.213 13.000 -20.947
O 77.359 25.241 -0.683
O 44.491 8.544 -21.901
O 65.648 5.761 -22.858
O 246.985 10.575 -14.113
O 63.335 13.631 -9.725
O 62.069 0.720 -14.470
O 238.289 11.642 -12.443
O 243.130 30.061 -16.216
O 44.160 12.277 -11.456
O 30.962 16.838 -12.568
O 66.822 8.442 -29.919
O 257.626 0.171 -17.850
O 40.886 15.772 -25.396
O 250.927 11.612 -23.709
O 73.385 12.407 -25.779
O 38.281 21.044 -27.081
O 71.580 3.286 -25.002
O 243.847 23.580 -5.584
O 243.915 9.670 -0.738
O 32.678 29.865 -9.624
O 233.537 21.432 -12.456
O 59.707 24.681 -27.457
O 72.203 19.483 -3.973
O 237.284 6.273 -31.126
O 259.159 15.990 -27.888
O 73.129 5.369 -21.384
O 236.474 13.640 -10.637
O 59.133 20.101 -23.637
O 51.336 31.241 -3.575
O 25.242 25.219 -10.502
O 255.929 29.258 -8.834
O 243.240 8.835 -21.951
O 25.878 27.786 -30.929
O 40.786 7.532 -0.464
O 236.178 2.265 -8.383
O 225.812 6.642 -23.414
O 39.165 13.215 -3.449
O 25.640 22.104 -25.233
O 224.474 12.864 -30.971
O 68.307 25.170 -20.031
O 53.787 22.283 -8.567
O 247.656 19.014 -27.583
O 246.452 21.320 -29.248
O 60.888 19.261 -21.123
O 51.394 7.084 -18.350
O 251.326 8.761 -8.633
O 58.559 17.781 -16.888
O 40.572 23.649 -17.056
O 36.943 31.287 -4.823
O 238.833 28.156 -6.518
O 32.154 16.918 -27.443
O 237.369 1.935 -31.349
O 224.965 18.071 -2.062
O 29.695 26.263 -15.801
O 65.581 21.014 -9.466
O 64.965 17.804 -27.760
O 26.306 12.884 -23.724
O 49.123 0.950 -1.948
O 257.179 2.985 -12.519
O 227.512 22.777 -0.707
O 52.563 27.496 -23.480
O 223.548 10.403 -16.076
O 26.133 18.933 -5.367
O 230.163 8.999 -14.101
O 29.335 17.270 -2.149
O 238.742 31.050 -11.636
O 62.986 29.055 -1.735
O 239.124 17.308 -28.910
O 35.159 19.584 -26.373
O 69.106 14.714 -16.337
O 65.017 20.241 -3.087
O 26.258 7.935 -22.433
O 39.778 20.543 -23.848
O 25.207 15.075 -15.239
O 227.940 14.659 -24.972
O 230.759 4.291 -18.497
O 58.854 29.546 -16.806
O 29.685 2.120 -11.952
O 236.425 5.007 -8.061
O 225.958 14.244 -4.343
O 31.577 8.393 -25.744
O 37.967 7.110 -12.836
O 46.395 20.605 -26.121
O 32.959 19.450 -2.851
O 229.940 30.137 -0.052
O 57.638 3.701 -7.741
O 45.517 2.169 -4.377
O 34.202 16.366 -23.253
O 72.826 5.161 -16.107
O 60.557 20.351 -4.392
O 58.394 29.012 -12.286
O 233.201 20.378 -8.548
O 70.848 17.801 -10.103
O 257.544 22.554 -0.363
O 248.693 27.031 -14.728
O 225.821 14.964 -12.135
O 230.834 20.206 -9.582
O 43.651 16.410 -4.238
O 232.187 19.582 -22.850
O 71.280 10.769 -2.126
O 46.315 26.528 -8.614
O 31.637 4.826 -16.816
O 54.630 27.119 -31.265
O 242.197 21.343 -17.908
O 222.043 16.957 -10.839
O 65.595 17.503 -4.357
O 36.884 28.816 -24.511
O 62.959 22.334 -20.891
O 224.634 10.507 -0.917
O 41.355 8.007 -22.823
O 78.440 3.823 -8.687
O 43.443 23.699 -22.474
O 38.411 13.616 -8.242
O 255.120 17.172 -30.707
O 241.764 15.465 -3.134
O 250.434 9.463 -25.530
O 250.160 19.418 -20.471
O 27.683 28.928 -16.810
O 231.013 22.733 -24.402
O 59.324 16.882 -24.144
O 56.133 22.996 -24.425
O 252.195 7.978 -5.944
O 252.337 18.322 -27.669
O 49.018 26.692 -4.373
O 234.548 4.387 -15.080
O 224.393 30.880 -27.875
O 51.380 12.148 -15.730
O 33.951 1.285 -7.505
O 42.226 5.654 -9.945
O 57.850 2.137 -12.812
O 61.411 11.108 -11.600
O 60.784 4.869 -15.116
O 36.249 13.270 -21.216
O 28.703 4.999 -0.804
O 72.518 28.556 -16.757
O 44.959 14.181 -17.860
O 55.348 20.100 -29.870
O 43.840 11.804 -19.091
O 64.572 10.815 -19.823
O 228.460 20.640 -7.585
O 259.097 21.912 -28.053
O 241.731 24.882 -19.098
O 235.628 3.644 -11.915
O 38.902 1.876 -25.861
O 240.457 14.683 -9.023
O 44.742 8.061 -17.171
O 247.510 12.995 -3.534
O 33.088 28.822 -18.228
O 225.219 26.894 -29.771
O 242.597 3.329 -8.842
O 234.942 13.790 -29.654
O 226.929 0.626 -24.089
O 257.972 28.201 -10.417
O 236.788 20.190 -7.517
O 35.179 13.797 -10.296
O 238.774 6.515 -12.565
O 32.506 20.119 -23.151
O 223.107 12.914 -7.949
O 222.680 29.343 -12.891
O 69.115 10.993 -21.619
O 62.449 18.947 -2.824
O 77.195 20.137 -8.917
O 71.481 8.967 -18.912
O 233.009 6.353 -24.297
O 57.336 0.438 -1.699
O 71.322 7.210 -14.057
O 33.671 7.725 -22.554
O 27.194 9.802 -13.638
O 237.814 22.556 -29.248
O 242.030 27.544 -16.203
O 248.852 15.406 -12.458
O 52.576 13.335 -10.004
O 46.275 19.619 -17.718
O 233.058 2.925 -11.442
O 62.522 12.867 -25.223
O 242.611 14.670 -11.342
O 249.095 18.908 -15.252
O 61.499 19.720 -0.192
O 240.815 8.049 -15.660
O 247.535 14.019 -16.669
O 222.381 27.438 -8.343
O 71.063 13.481 -24.985
O 72.995 25.372 -25.476
O 77.278 14.819 -18.370
O 37.731 12.021 -10.408
O 67.421 29.773 -15.192
O 79.658 12.268 -6.850
O 240.375 12.009 -22.302
O 247.912 28.663 -21.365
O 253.886 15.772 -16.509
O 248.477 23.464 -11.159
O 53.276 3.152 -11.392
O 253.664 27.881 -20.646
O 247.957 15.093 -28.519
O 61.655 12.649 -28.335
O 42.047 16.407 -15.842
O 236.347 29.124 -7.093
O 31.493 1.965 -28.710
O 59.391 2.250 -29.985
O 37.561 9.938 -22.990
O 70.252 5.731 -18.631
O 248.806 18.198 -29.956
O 63.373 22.592 -8.071
O 45.077 6.234 -31.075
O 249.051 29.908 -11.928
O 62.615 10.229 -6.329
O 32.266 6.232 -19.000
O 28.200 0.173 -13.085
O 248.539 6.919 -10.349
O 57.533 25.489 -28.488
O 43.788 -0.027 -4.127
O 238.446 22.545 -2.723
O 256.054 3.505 -5.083
O 233.707 29.925 -27.180
O 75.087 11.773 -1.911
O 30.980 27.900 -2.589
O 242.613 5.677 -27.801
O 221.169 10.785 -25.724
O 62.083 4.848 -6.610
O 63.715 2.444 -25.827
O 225.169 11.960 -23.530
O 37.582 30.856 -28.871
O 228.716 4.891 -5.069
O 253.339 4.473 -29.174
O 234.574 22.267 -2.133
O 25.235 22.027 -0.689
O 27.227 15.513 -31.392
O 68.157 25.562 -29.913
O 72.269 11.865 -15.523
O 37.243 9.821 -27.367
O 61.015 22.775 -14.243
O 58.191 14.280 -23.155
O 51.282 1.469 -30.516
O 253.272 1.413 -28.068
O 38.726 15.588 -10.197
O 43.117 7.068 -27.357
O 70.966 11.531 -5.746
O 66.594 12.058 -2.368
O 26.663 7.737 -4.288
O 31.786 30.878 -21.635
O 243.659 13.568 -1.371
O 66.773 2.250 -31.028
O 38.712 13.314 -17.868
O 39.920 12.878 -20.903
O 63.526 30.020 -4.255
O 53.598 13.226 -0.868
O 224.651 23.264 -0.310
O 246.064 24.166 -9.841
O 25.180 5.695 -3.149
O 70.538 4.317 -1.821
O 242.416 15.671 -28.806
O 53.907 25.250 -19.295
O 225.628 24.283 -29.210
O 255.128 4.323 -18.570
O 74.632 17.509 -0.397
O 24.664 13.160 -8.651
O 67.226 2.707 -7.733
O 247.107 8.094 -18.092
O 35.898 24.060 -14.808
O 48.977 16.869 -10.098
O 49.322 19.603 -9.061
O 61.171 10.479 -21.471
O 31.996 13.566 -23.873
O 230.396 31.355 -26.122
O 236.612 12.437 -5.106
O 249.174 6.553 -27.203
O 23.982 8.034 -19.881
O 53.913 5.700 -12.517
O 47.966 25.593 -31.441
O 64.914 21.727 -16.578
O 223.121 18.946 -24.453
O 221.499 7.956 -2.122
O 242.036 16.236 -22.564
O 56.816 31.187 -20.217
O 258.549 9.888 -1.000
O 62.327 22.308 -16.548
O 233.129 9.214 -26.803
O 53.770 16.796 -22.899
O 78.013 2.891 -5.751
O 66.161 23.061 -23.488
O 242.838 11.419 -23.394
O 238.639 16.777 -11.576
O 65.210 29.494 -10.729
O 32.198 29.347 -24.894
O 248.356 8.267 -14.808
O 225.709 10.840 -7.407
O 257.949 20.005 -6.701
O 242.462 21.437 -25.110
O 52.679 26.922 -29.138
O 232.152 11.300 -12.072
O 70.203 27.350 -1.872
O 246.603 27.491 -29.859
O 256.881 25.897 -17.077
O 240.559 23.233 -27.962
O 221.722 22.810 -19.581
O 37.985 5.064 -22.868
O 29.044 22.043 -8.450
O 38.378 18.168 -30.907
O 35.893 5.765 -2.346
O 255.545 24.026 -22.592
O 236.471 29.515 -16.082
O 48.546 29.524 -1.452
O 253.741 6.744 -26.786
O 240.003 6.930 -27.483
O 40.035 23.420 -9.111
O 39.281 0.374 -31.420
O 258.262 20.469 -17.294
O 222.094 6.979 -10.112
O 28.923 7.814 -12.593
O 53.607 1.102 -27.624
O 51.398 17.543 -8.082
O 51.208 18.138 -3.766
O 43.169 13.885 -2.758
O 227.011 17.613 -3.782
O 40.202 2.779 -17.064
O 243.949 30.420 -21.329
O 36.066 15.826 -16.431
O 59.169 24.548 -12.828
O 255.468 28.356 -1.293
O 229.098 25.205 -17.452
O 77.186 22.681 -19.527
O 240.224 20.341 -2.674
O 250.016 20.775 -8.067
O 48.543 9.510 -13.953
O 50.498 12.892 -13.279
O 73.349 25.948 -7.241
O 52.425 12.315 -22.567
O 226.786 2.972 -3.389
O 65.954 30.253 -20.423
O 237.540 30.167 -23.770
O 73.516 21.687 -9.979
O 75.805 11.514 -14.461
O 231.287 2.490 -27.042
O 63.071 12.011 -18.042
O 51.776 2.464 -24.142
O 64.313 15.367 -26.758
O 29.859 19.693 -27.054
O 57.063 8.296 -10.746
O 74.134 20.766 -13.582
O 224.834 11.414 -3.724
O 223.624 10.996 -11.805
O 240.167 19.768 -19.092
O 232.655 26.348 -30.036
O 241.975 12.986 -29.863
O 71.478 25.229 -23.261
O 226.054 8.310 -4.037
O 47.008 30.176 -18.822
O 41.981 10.936 -7.360
O 46.734 22.218 -28.324
O 220.594 1.165 -23.401
O 245.514 3.642 -25.798
O 41.383 14.886 -1.069
O 34.252 1.068 -3.313
O 244.985 1.089 -16.689
O 237.276 29.201 -12.979
O 243.945 14.041 -9.129
O 55.005 1.953 -24.708
O 54.565 29.382 -9.519
O 227.712 21.230 -12.781
O 33.362 30.015 -6.885
O 75.284 13.765 -12.632
O 61.628 18.417 -6.159
O 236.204 26.615 -24.563
O 237.747 1.894 -17.069
O 238.692 27.800 -24.703
O 42.409 30.586 -1.770
O 74.460 29.248 -27.810
O 61.095 28.296 -11.822
O 252.455 24.746 -6.536
O 36.086 28.461 -21.062
O 233.309 1.531 -15.298
O 68.888 4.685 -20.626
O 232.728 3.620 -7.752
O 56.056 22.512 -7.107
O 238.756 3.699 -3.646
O 222.904 15.810 -2.015
O 241.663 2.519 -12.172
O 246.391 12.612 -0.855
O 243.165 19.454 -29.126
O 45.781 15.599 -5.911
O 44.199 1.626 -25.885
O 237.076 5.536 -10.548
O 228.888 27.469 -27.581
O 242.491 9.613 -16.752
O 244.588 30.719 -24.930
O 245.162 2.619 -1.211
O 242.098 14.933 -14.567
O 61.310 25.360 -0.364
O 27.457 9.534 -28.030
O 229.778 17.810 -23.278
O 257.354 25.473 -3.694
O 52.099 20.882 -19.895
O 41.362 4.104 -6.026
O 58.893 22.750 -25.138
O 238.265 2.491 -22.313
O 244.079 24.044 -28.140
O 75.236 30.294 -6.122
O 232.117 0.814 -12.986
O 247.782 21.455 -13.139
O 221.583 15.312 -8.427
O 49.372 0.595 -8.984
O 29.853 24.544 -11.261
O 70.850 30.696 -24.679
O 29.785 2.366 -21.829
O 38.110 18.293 -16.341
O 75.421 0.468 -11.607
O 47.356 18.938 -10.838
O 248.962 0.795 -7.628
O 227.062 14.770 -1.923
O 48.512 12.757 -3.480
O 38.350 30.569 -22.351
O 56.278 25.270 -4.351
O 256.106 21.489 -14.299
O 63.460 28.798 -28.838
O 65.884 18.562 -25.067
O 235.086 26.371 -7.517
O 222.993 7.004 -18.205
O 256.116 15.647 -18.529
O 250.053 27.210 -26.462
O 58.936 26.796 -2.055
O 224.824 6.158 -12.896
O 45.789 21.572 -8.351
O 31.978 17.847 -0.696
O 48.954 12.379 -27.913
O 244.768 5.423 -4.453
O 224.250 20.897 -1.842
O 71.687 24.049 -27.439
O 53.251 7.304 -16.230
O 69.070 11.775 -13.768
O 36.057 21.556 -23.887
O 229.043 18.147 -2.153
O 219.713 12.349 -1.235
O 250.162 23.551 -30.911
O 69.347 9.078 -31.069
O 69.902 19.473 -28.522
O 46.453 5.430 -25.295
O 67.161 25.589 -25.816
O 38.539 27.551 -13.012
O 46.949 27.320 -18.254
O 34.467 25.406 -24.043
O 249.460 12.686 -15.463
O 52.450 29.346 -26.371
O 256.817 13.816 -27.607
O 47.322 23.498 -24.837
O 254.741 23.043 -16.289
O 65.753 7.968 -5.257
O 42.732 27.720 -27.531
O 46.051 0.857 -10.211
O 233.603 15.921 -27.610
O 76.178 16.001 -2.473
O 57.273 15.671 -20.425
O 43.764 20.081 -25.787
O 239.278 30.260 -0.835
O 62.463 7.627 -2.546
O 253.621 20.136 -13.735
O 247.363 5.934 -15.906
O 235.298 11.689 -15.380
O 56.674 15.922 -12.178
O 37.867 17.366 -20.564
O 230.198 8.414 -20.441
O 52.254 14.788 -16.564
O 64.510 24.483 -21.614
O 42.612 27.368 -30.210
O 246.350 17.451 -25.952
O 34.919 11.210 -28.470
O 23.420 17.083 -2.345
O 32.605 31.248 -15.887
O 232.565 25.374 -27.374
O 253.931 5.776 -5.617
O 44.326 24.577 -6.535
O 229.468 11.121 -12.378
O 31.513 1.867 -17.273
O 69.864 16.967 -12.665
O 249.009 13.775 -21.359
O 60.709 12.945 -19.201
O 45.460 22.500 -4.959
O 26.770 6.610 -11.668
O 236.183 13.897 -18.810
O 249.111 5.154 -21.528
O 223.833 16.035 -28.360
O 64.050 12.813 -0.749
O 55.154 17.092 -25.609
O 65.825 27.995 -29.893
O 258.965 11.504 -23.945
O 242.558 23.112 -12.731
O 226.890 29.030 -26.539
O 259.035 27.774 -25.565
O 247.668 25.838 -5.862
O 25.648 10.681 -31.119
O 40.568 20.733 -18.136
O 58.499 24.617 -31.225
O 74.111 19.500 -7.925
O 33.056 11.405 -31.188
O 228.773 8.168 -17.986
O 38.057 5.265 -0.771
O 70.426 27.602 -12.188
O 34.199 19.897 -29.125
O 59.573 9.854 -4.458
O 233.695 20.531 -28.541
O 62.100 10.823 -0.396
O 50.167 15.852 -13.003
O 64.170 24.699 -9.498
O 37.710 14.410 -23.485
O 40.256 4.947 -28.380
O 38.310 12.825 -28.152
O 242.966 17.089 -13.071
O 235.371 5.088 -18.341
O 246.969 3.780 -5.382
O 49.186 11.989 -6.086
O 256.075 18.061 -7.284
O 235.959 16.173 -11.867
O 66.810 17.173 -19.049
O 26.142 1.597 -1.506
O 68.082 27.815 -19.199
O 228.014 21.348 -26.313
O 235.285 23.854 -23.599
O 32.121 0.942 -10.584
O 46.381 19.523 -30.134
O 71.657 26.518 -28.663
O 246.093 18.687 -23.570
O 232.644 6.609 -26.941
O 43.052 14.695 -8.490
O 240.392 26.392 -12.439
O 69.722 29.362 -10.228
O 241.030 22.464 -22.839
O 239.496 30.821 -5.973
O 222.360 13.047 -1.330
O 65.586 23.129 -14.211
O 227.535 28.409 -23.767
O 255.293 4.826 -13.393
O 75.203 7.221 -0.860
O 47.990 4.112 -11.060
O 226.669 5.176 -25.936
O 236.548 13.037 -0.512
O 27.546 23.592 -0.524
O 39.883 18.272 -26.478
O 246.306 15.393 -8.508
O 232.997 1.307 -3.138
O 67.650 7.312 -1.811
O 227.365 29.466 -4.641
O 236.742 29.867 -20.930
O 30.560 20.447 -0.240
O 257.798 10.486 -5.152
O 243.378 9.422 -11.121
O 228.770 27.936 -11.572
O 257.353 19.218 -2.224
O 37.021 23.057 -8.134
O 34.387 3.483 -16.051
O 65.919 5.278 -16.578
O 66.223 9.816 -7.478
O 53.373 24.323 -25.179
O 43.952 27.938 -7.581
O 251.679 0.691 -9.025
O 46.914 28.618 -4.280
O 24.537 2.690 -25.092
O 25.239 8.177 -26.892
O 75.938 21.801 -26.622
O 248.170 26.221 -11.892
O 235.636 6.911 -16.130
O 230.164 18.090 -11.442
O 34.914 29.395 -16.102
O 77.466 3.644 -0.909
O 250.452 18.943 -25.220
O 77.572 4.776 -20.257
O 231.982 3.826 -24.623
O 239.916 11.090 -3.050
O 248.996 15.729 -5.388
O 244.838 25.450 -30.380
O 56.625 4.926 -30.757
O 64.062 14.130 -3.871
O 48.688 2.789 -24.106
O 234.640 2.252 -6.106
O 253.467 24.799 -24.287
O 235.644 21.702 -9.406
O 222.446 5.306 -6.439
O 43.469 28.035 -1.294
O 62.798 1.498 -8.842
O 233.976 2.859 -18.429
O 53.859 4.454 -24.093
O 35.397 14.671 -4.753
O 247.673 30.249 -23.500
O 235.236 8.561 -12.075
O 243.809 18.923 -19.147
O 253.061 8.596 -24.801
O 56.961 12.810 -3.644
O 68.091 29.271 -30.688
O 39.106 25.273 -22.436
O 72.486 18.934 -19.729
O 231.410 29.184 -3.469
O 53.703 19.400 -21.689
O 54.109 24.700 -12.231
O 50.166 29.132 -5.434
O 227.820 10.743 -24.659
O 25.822 10.533 -20.542
O 222.641 16.885 -30.694
O 250.954 27.691 -21.000
O 237.400 17.042 -25.103
O 46.563 5.884 -18.656
O 238.876 12.843 -6.985
O 253.501 9.764 -4.552
O 252.690 0.072 -6.466
O 74.342 8.708 -19.013
O 236.076 10.556 -7.566
O 225.498 15.473 -21.244
O 44.748 23.584 0.011
O 76.100 10.098 -8.160
O 224.279 3.990 -2.927
O 227.008 11.580 -11.006
O 53.419 9.939 -11.492
O 232.522 26.577 -21.591
O 48.944 28.753 -22.005
O 255.553 19.981 -0.435
O 37.392 2.591 -20.980
O 257.064 28.849 -13.008
O 227.237 17.310 -25.107
O 231.722 13.823 -12.335
O 31.564 11.802 -21.528
O 73.485 17.355 -14.344
O 242.116 21.452 -7.330
O 23.657 18.024 -6.532
O 229.126 31.033 -6.104
O 28.641 30.059 -28.261
O 228.639 3.713 -29.986
O 255.019 22.805 -19.739
O 255.848 7.623 -30.510
O 235.143 13.358 -13.025
O 29.001 6.067 -25.570
O 233.149 18.003 -15.106
O 232.322 26.606 -7.142
O 59.314 15.926 -11.242
O 221.561 4.240 -3.918
O 224.961 13.338 -15.903
O 233.940 10.627 -9.955
O 235.195 19.019 -22.552
O 231.322 6.634 -21.733
O 64.957 23.692 -6.045
O 255.139 24.789 -0.361
O 70.084 20.697 -26.010
O 234.510 23.330 -18.431
O 32.566 26.900 -6.129
O 43.738 21.384 -12.577
O 63.628 27.337 -5.804
O 36.243 25.983 -18.866
O 251.288 29.285 -8.843
O 239.734 2.313 -6.450
O 64.382 1.716 -23.230
O 25.748 25.748 -1.435
O 239.944 9.672 -13.685
O 72.096 26.580 -19.171
O 234.158 23.591 -26.245
O 30.532 22.132 -13.378
O 237.134 29.465 -9.653
O 238.796 20.537 -25.722
O 59.256 2.873 -19.533
O 41.658 6.746 -19.153
O 44.953 2.648 -28.264
O 66.135 4.019 -27.149
O 66.393 12.082 -29.974
O 52.776 30.405 -5.863
O 74.658 3.349 -17.153
O 253.933 16.142 -28.412
O 53.901 8.207 -9.559
O 60.814 2.533 -17.011
O 62.981 29.700 -13.379
O 251.217 4.506 -23.139
O 249.710 18.399 -4.070
O 228.536 0.617 -16.560
O 52.147 1.482 -20.743
O 35.644 30.634 -10.917
O 53.378 24.223 -31.258
O 29.570 7.147 -4.431
O 224.037 17.781 -14.219
O 24.313 21.328 -12.591
O 33.468 13.603 -20.723
O 232.797 24.127 -0.755
O 239.862 10.704 -25.037
O 245.143 21.331 -12.800
O 56.844 12.964 -19.825
O 49.045 19.588 -31.126
O 240.686 18.414 -12.757
O 257.711 19.854 -24.144
O 49.987 23.142 -25.318
O 243.952 18.316 -21.856
O 45.328 19.395 -22.462
O 61.884 21.332 -11.201
O 241.824 15.295 -18.120
O 228.746 5.348 -22.543
O 48.118 1.101 -17.159
O 39.680 21.180 -20.796
O 51.711 24.299 -16.219
O 59.811 6.335 -1.390
O 78.736 20.202 -19.812
O 229.946 27.222 -30.240
O 71.620 23.427 -2.190
O 223.501 2.704 -30.719
O 27.012 0.087 -17.291
O 238.153 11.626 -30.037
O 34.248 9.362 -16.678
O 234.626 15.964 -5.546
O 70.276 13.017 -11.568
O 76.833 7.465 -19.718
O 72.439 19.920 -0.270
O 31.730 22.970 -31.161
O 226.962 19.985 -5.529
O 23.843 19.684 -1.888
O 238.157 21.032 -13.132
O 66.194 7.863 -9.728
O 220.867 19.293 -30.321
O 258.684 5.423 -28.640
O 247.711 21.081 -6.827
O 25.456 5.366 -27.348
O 62.329 1.733 -6.183
O 74.432 13.745 -23.665
O 37.285 20.579 -19.910
O 254.784 28.679 -11.095
O 43.194 20.848 -22.997
O 44.643 1.582 -15.923
O 237.994 12.946 -2.851
O 40.999 29.077 -25.314
O 38.350 25.282 -7.261
O 69.276 10.676 -10.193
O 46.767 11.767 -29.434
O 49.809 10.746 -25.906
O 54.847 11.102 -29.303
O 71.919 7.455 -28.052
O 41.515 24.726 -20.311
O 48.928 6.257 -7.843
O 237.313 19.647 -4.421
O 73.469 24.900 -10.868
O 42.763 8.109 -29.885
O 222.006 0.054 -16.069
O 50.941 15.262 -6.823
O 55.752 23.900 -27.201
O 250.180 30.767 -21.439
O 71.970 3.434 -19.379
O 225.224 21.601 -11.766
O 257.921 18.537 -21.741
O 240.895 16.989 -31.190
O 246.822 0.719 -3.020
O 45.550 7.913 -9.366
O 60.750 28.036 -0.465
O 37.356 5.767 -8.692
O 244.708 31.162 -0.700
O 37.939 19.875 -14.039
O 244.285 13.940 -27.421
O 28.955 17.072 -26.113
O 23.491 3.910 -22.771
O 248.085 29.717 -7.201
O 68.847 11.570 -24.911
O 37.671 3.511 -18.357
O 41.671 0.459 -30.118
O 45.146 25.616 -29.724
O 233.238 9.690 -14.081
O 63.504 2.950 -15.456
O 220.704 18.081 -6.671
O 233.340 13.491 -19.119
O 56.385 9.802 -17.461
O 68.273 10.171 -3.268
O 73.067 7.849 -30.578
O 63.636 24.202 -2.019
O 222.041 14.858 -26.341
O 57.720 22.309 -9.481
O 246.737 22.308 -21.764
O 246.735 10.821 -28.940
O 24.530 14.791 -31.475
O 68.618 14.712 -10.399
O 43.339 8.814 -19.375
O 251.210 18.062 -6.225
O 58.104 28.554 -20.614
O 223.635 22.385 -8.145
O 225.888 4.368 -10.085
O 258.613 30.994 -30.600
O 42.975 3.830 -1.747
O 253.538 28.710 -7.399
O 32.714 29.957 -4.028
O 46.902 1.623 -0.181
O 231.003 1.850 -16.948
O 252.930 3.104 -7.308
O 245.808 11.011 -11.605
O 27.151 3.797 -2.829
O 229.137 21.477 -28.955
O 251.590 0.803 -19.625
O 241.072 22.714 -9.360
O 53.188 13.336 -28.899
O 65.821 29.595 -7.323
O 71.552 10.554 -8.392
O 28.451 25.548 -2.322
O 231.033 8.005 -3.219
O 78.333 30.566 -8.626
O 255.587 13.278 -23.496
O 223.935 5.943 -26.901
O 256.509 11.306 -26.952
O 68.936 23.413 -26.793
O 250.260 4.102 -2.644
O 71.938 14.605 -16.047
O 250.474 29.201 -6.235
O 249.750 13.872 -26.852
O 237.776 27.980 -1.513
O 246.502 18.998 -2.393
O 237.727 19.667 -29.597
O 37.151 28.486 -4.631
O 75.119 4.059 -28.788
O 240.327 0.739 -14.037
O 248.869 8.718 -23.497
O 229.639 22.395 -10.591
O 53.103 2.481 -8.819
O 46.710 15.610 -20.317
O 48.947 14.924 -28.100
O 25.880 1.522 -14.120
O 29.806 12.671 -9.856
O 24.403 27.987 -16.009
O 42.202 19.466 -27.914
O 52.146 28.950 -2.261
O 34.256 2.954 -20.487
O 28.647 18.039 -17.356
O 37.586 25.754 -16.216
O 244.735 22.624 -18.222
O 247.488 26.234 -27.615
O 66.196 2.244 -15.987
O 234.921 18.467 -25.242
O 240.055 2.490 -0.267
O 250.797 23.292 -8.845
O 224.957 22.372 -14.335
O 224.680 8.016 -8.872
O 221.702 27.443 -11.115
O 76.134 24.835 -27.884
O 41.084 4.081 -14.111
O 75.319 11.570 -19.118
O 68.476 0.487 -25.585
O 36.308 16.016 -25.238
O 240.333 10.047 -30.837
O 228.596 0.910 -30.525
O 49.732 2.607 -19.082
O 240.799 19.279 -15.489
O 44.385 3.621 -24.260
O 56.708 2.069 -30.915
O 59.075 18.103 -31.096
O 55.347 29.973 -23.607
O 68.124 16.974 -25.634
O 50.402 25.144 -21.392
O 222.912 9.285 -19.854
O 258.391 10.712 -15.945
O 65.977 10.535 -24.274
O 244.100 23.114 -20.882
O 51.535 19.621 -11.210
O 233.584 15.298 -23.157
O 220.358 30.654 -18.311
O 244.323 2.592 -18.831
O 49.692 5.745 -24.015
O 42.404 25.043 -8.809
O 24.532 8.393 -5.819
O 77.662 10.023 -19.801
O 248.707 3.253 -8.796
O 29.010 12.096 -13.716
O 241.764 8.407 -6.128
O 53.055 2.065 -17.196
O 25.693 20.438 -21.409
O 67.676 3.789 -1.665
O 36.772 10.734 -20.491
O 249.667 21.330 -1.162
O 234.387 5.375 -28.456
O 235.911 19.886 -14.355
O 223.833 25.220 -18.668
O 31.761 13.614 -7.314
O 52.593 4.402 -6.759
O 242.525 26.758 -24.603
O 245.616 18.701 -11.486
O 42.310 4.008 -19.089
O 46.110 29.701 -25.258
O 24.065 10.857 -28.642
O 68.828 11.598 -16.925
O 250.882 24.600 -3.868
O 226.120 7.809 -18.264
O 243.118 17.198 -10.330
O 221.244 23.665 -7.168
O 38.789 27.858 -26.162
O 24.822 1.420 -30.742
O 44.360 27.180 -22.811
O 223.706 7.995 -0.148
O 60.095 9.363 -18.939
O 37.331 10.501 -30.758
O 38.807 24.765 -29.040
O 259.061 14.092 -25.919
O 239.858 8.041 -9.219
O 68.568 8.135 -11.405
O 41.295 12.530 -15.611
O 235.782 14.807 -24.721
O 244.366 25.950 -21.279
O 70.703 17.617 -2.499
O 34.665 5.905 -20.415
O 32.271 4.196 -0.105
O 256.122 0.444 -11.962
O 39.742 29.858 -1.666
O 223.593 14.322 -13.787
O 65.014 3.628 -21.232
O 51.761 21.204 -7.188
O 250.191 7.024 -12.594
O 30.662 4.373 -26.870
O 52.830 9.219 -20.622
O 63.664 30.788 -21.829
O 74.041 23.703 -13.175
O 239.226 15.451 -26.236
O 219.747 19.881 -1.922
O 75.186 8.622 -4.193
O 69.508 27.194 -5.296
O 76.788 23.056 -2.370
O 244.342 6.992 -11.077
O 36.024 5.515 -14.020
O 228.736 9.390 -4.149
O 242.618 10.770 -13.620
O 35.886 21.873 -4.592
O 61.375 22.977 -28.821
O 58.766 8.639 -29.048
O 38.871 12.716 -25.523
O 225.948 25.129 -7.955
O 243.767 0.642 -29.549
O 52.315 7.244 -5.419
O 245.855 13.353 -29.405
O 248.148 24.898 -0.923
O 40.916 26.500 -7.144
O 230.465 21.756 -31.279
O 48.638 25.415 -6.934
O 29.842 22.747 -5.600
O 75.906 17.060 -4.959
O 224.336 11.017 -25.777
O 26.722 23.921 -17.378
O 56.033 24.701 -1.510
O 250.443 26.511 -5.915
O 234.065 13.341 -9.346
O 31.844 9.124 -21.232
O 35.629 20.963 -13.639
O 61.655 8.775 -9.023
O 33.913 0.079 -30.499
O 37.389 18.607 -25.122
O 25.313 13.145 -21.083
O 44.355 31.450 -18.461
O 253.693 17.250 -3.642
O 241.314 20.980 -11.577
O 259.340 1.769 -21.182
O 35.265 28.279 -9.258
O 49.646 7.945 -22.538
O 236.988 4.082 -29.317
O 72.876 18.063 -17.139
O 49.166 18.339 -23.043
O 53.454 25.499 -5.940
O 226.592 2.453 -20.695
O 61.340 31.120 -24.711
O 77.164 23.423 -29.899
O 66.304 25.724 -13.484
O 257.421 22.757 -24.046
O 26.697 0.586 -22.977
O 230.380 2.653 -1.845
O 259.259 3.202 -7.991
O 28.469 26.205 -7.263
O 228.140 3.549 -17.777
O 43.231 12.291 -21.654
O 64.804 2.814 -6.134
O 36.405 14.633 -13.781
O 77.948 16.953 -16.622
O 258.567 31.120 -27.854
O 29.708 27.731 -10.839
O 56.853 13.118 -13.195
O 256.192 25.264 -27.201
O 78.155 26.419 -23.168
O 223.210 20.396 -9.996
O 46.912 6.931 -21.599
O 228.983 14.309 -30.065
O 255.953 15.264 -3.464
O 27.741 20.154 -0.087
O 32.498 23.831 -11.853
O 234.096 13.493 -26.679
O 224.729 1.389 -9.570
O 232.731 29.401 -11.717
O 228.575 6.458 -28.919
O 65.070 29.083 -16.469
O 64.229 19.464 -6.783
O 246.192 4.266 -8.300
O 39.240 7.042 -16.348
O 59.810 5.336 -24.008
O 248.671 10.261 -20.937
O 55.366 28.496 -3.634
O 241.195 10.317 -9.568
O 224.209 3.385 -7.457
O 71.132 22.417 -8.606
O 58.723 11.379 -17.279
O 51.803 6.959 -21.235
O 36.171 22.145 -28.466
O 230.676 24.205 -12.524
O 235.251 25.688 -10.434
O 76.637 15.742 -13.879
O 254.046 10.947 -16.779
O 67.097 2.435 -20.370
O 26.297 12.906 -13.919
O 259.530 6.037 -9.618
O 35.758 14.273 -7.437
O 60.258 27.217 -26.384
O 30.920 26.930 -13.326
O 231.796 13.203 -5.202
O 23.484 2.843 -13.472
O 59.577 20.047 -16.068
O 228.620 3.107 -8.728
O 224.472 17.969 -9.815
O 40.865 8.305 -26.404
O 230.127 12.423 -7.639
O 32.179 22.267 -7.212
O 222.777 2.936 -16.134
O 234.430 28.916 -13.735
O 62.489 0.336 -27.228
O 33.352 22.344 -9.802
O 36.474 9.700 -9.277
O 24.361 4.967 -17.291
O 250.638 25.011 -20.554
O 49.368 22.087 -6.814
O 56.552 28.626 -1.180
O 27.273 1.131 -25.523
O 45.270 2.571 -7.010
O 243.483 27.099 -18.525
O 226.396 21.160 -29.875
O 49.658 28.085 -8.039
O 241.292 0.266 -10.109
O 46.359 27.270 -15.683
O 253.397 7.696 -10.341
O 252.214 4.656 -25.674
O 61.608 27.659 -21.897
O 33.782 27.965 -13.934
O 66.189 11.484 -10.719
O 254.548 26.848 -29.928
O 226.126 25.118 -15.859
O 33.643 6.587 -0.622
O 65.282 21.239 -25.649
O 224.829 12.898 -18.715
O 234.391 13.096 -6.655
O 223.639 0.496 -12.064
O 76.240 30.881 -15.565
O 31.010 23.894 -15.768
O 30.910 15.641 -30.199
O 38.846 28.355 -20.593
O 68.420 7.825 -25.313
O 68.275 27.325 -8.516
O 58.416 7.548 -3.601
O 257.163 1.153 -24.472
O 239.878 14.292 -31.345
O 236.602 25.108 -16.073
O 25.465 25.291 -19.427
O 240.546 11.256 -17.587
O 249.277 2.202 -5.295
O 256.578 0.855 -21.674
O 235.656 25.326 -13.444
O 227.690 19.870 -24.176
O 237.405 14.892 -22.660
O 29.970 23.555 -22.331
O 57.732 24.959 -10.244
O 45.503 30.144 -27.729
O 253.525 21.614 -8.971
O 55.577 26.462 -25.860
O 66.707 14.596 -30.723
O 226.768 18.591 -8.486
O 71.762 5.448 -23.651
O 59.084 30.939 -28.335
O 247.224 19.553 -21.258
O 243.103 7.465 -3.834
O 40.365 10.908 -22.771
O 59.281 29.518 -24.974
O 71.274 24.687 -14.761
O 243.940 10.953 -29.855
O 47.019 0.730 -28.739
O 50.389 21.917 -30.669
O 254.069 11.421 -20.958
O 57.193 24.638 -20.462
O 54.207 3.923 -19.095
O 244.386 16.686 -3.526
O 70.656 31.347 -29.000
O 248.963 6.642 -7.718
O 59.922 19.923 -8.356
O 238.991 17.676 -1.553
O 226.815 30.545 -0.409
O 34.636 18.386 -11.815
O 223.755 28.959 -17.973
O 26.421 22.977 -9.145
O 70.452 20.798 -1.792
O 258.049 6.890 -15.174
O 66.260 13.220 -27.572
O 225.834 9.348 -12.017
O 250.716 20.800 -13.630
O 244.070 8.820 -27.921
O 39.856 5.134 -3.809
O 68.319 22.650 -14.136
O 255.322 15.480 -7.760
O 59.198 21.852 -20.047
O 223.466 24.737 -3.934
O 233.103 24.128 -10.060
O 43.594 14.122 -15.385
O 251.514 26.468 -1.828
O 70.960 9.353 -22.898
O 222.703 23.762 -15.438
O 246.721 14.321 -13.940
O 33.517 9.894 -24.499
O 62.487 8.083 -18.021
O 251.749 0.048 -16.438
O 256.773 29.551 -4.752
O 62.069 5.874 -30.581
O 52.083 12.652 -25.921
O 29.447 13.908 -4.009
O 40.581 15.545 -13.418
O 43.544 31.058 -13.314
O 34.663 9.020 -19.565
O 55.263 12.188 -10.891
O 42.147 19.262 -15.209
O 50.362 11.888 -10.529
O 52.899 4.297 -21.512
O 31.361 17.186 -15.532
O 45.813 25.009 -21.383
O 248.925 13.630 -30.733
O 54.298 22.657 -29.096
O 253.478 23.671 -2.116
O 252.785 1.263 -31.240
O 40.086 15.726 -3.491
O 61.824 15.394 -28.353
O 242.052 11.388 -1.412
O 229.652 24.461 -30.315
O 228.049 5.017 -1.988
O 33.555 8.756 -28.303
O 250.470 4.258 -27.866
O 49.331 19.066 -16.260
O 231.177 28.671 -26.718
O 235.354 11.005 -18.795
O 237.493 27.532 -17.620
O 53.026 20.388 -31.383
O 25.360 24.653 -23.758
O 62.442 3.460 -0.471
O 222.278 22.900 -30.420
O 61.148 22.116 -22.984
O 222.812 25.677 -30.873
O 220.400 13.644 -4.003
O 222.723 8.053 -28.519
O 26.731 4.208 -25.242
O 232.557 7.809 -5.472
O 224.553 0.532 -18.603
O 30.486 25.329 -30.744
O 66.757 31.177 -12.115
O 42.611 18.827 -6.410
O 72.049 13.288 -9.243
O 68.372 31.086 -21.806
O 23.533 24.151 -14.542
O 62.703 26.295 -27.519
O 226.134 27.274 -4.178
O 56.351 16.889 -3.243
O 43.140 17.634 -13.067
O 29.118 23.659 -26.395
O 55.951 2.070 -3.871
O 33.779 14.989 -28.771
O 238.418 20.643 -16.842
O 62.965 4.765 -3.955
O 57.177 30.402 -30.310
O 59.489 2.051 -8.824
O 56.824 10.021 -4.220
O 64.942 7.023 -1.391
O 69.868 13.614 -7.637
O 224.742 21.771 -27.589
O 25.567 27.924 -5.114
O 251.106 9.479 -11.314
O 245.831 11.968 -16.329
O 69.934 29.881 -19.563
O 259.115 20.483 -19.965
O 39.354 7.469 -20.374
O 72.332 8.115 -2.730
O 25.125 8.174 -30.550
O 74.104 13.647 -28.260
O 46.162 27.874 -0.561
O 243.310 30.062 -10.716
O 61.212 28.916 -8.872
O 57.593 20.150 -6.710
O 75.403 26.065 -22.921
O 47.007 0.649 -14.655
O 55.090 17.608 -0.756
O 258.818 24.571 -19.166
O 227.255 6.716 -11.123
O 244.749 8.326 -7.342
O 245.659 23.808 -0.857
O 244.476 14.486 -15.957
O 223.654 17.779 -6.954
O 230.512 0.409 -3.803
O 245.064 9.933 -17.788
O 39.402 23.157 -12.281
O 76.679 0.814 -7.133
O 220.725 19.448 -9.817
O 254.042 2.708 -25.912
O 35.102 26.875 -31.303
O 24.280 30.684 -16.603
O 238.435 5.549 -6.002
O 23.916 28.598 -7.604
O 77.480 25.279 -20.649
O 67.775 16.863 -8.710
O 32.656 31.213 -27.263
O 219.495 9.900 -2.036
O 45.480 4.710 -3.690
O 227.437 18.498 -18.526
O 77.488 13.540 -1.815
O 245.459 19.682 -17.149
O 56.234 13.914 -8.971
O 234.284 30.625 -24.721
O 224.317 20.317 -6.456
O 64.242 16.576 -15.227
O 258.938 10.809 -11.916
O 36.771 3.006 -24.148
O 45.185 12.529 -1.827
O 258.368 2.849 -26.534
O 50.349 0.107 -22.202
O 242.615 25.598 -9.849
O 232.416 20.580 -1.777
O 254.231 26.540 -16.931
O 229.294 31.354 -13.858
O 255.174 10.831 -8.567
O 47.698 9.973 -9.140
O 72.003 7.767 -8.066
O 37.416 28.305 -15.565
O 69.103 21.334 -4.335
O 219.915 6.911 -21.955
O 54.376 5.554 -9.377
O 230.536 21.506 -5.625
O 237.211 7.357 -28.139
O 255.446 24.602 -13.973
O 229.505 28.914 -8.469
O 50.241 24.378 -3.223
O 59.440 13.645 -3.180
O 37.115 24.272 -4.866
O 58.275 11.633 -22.112
O 58.818 18.826 -10.919
O 25.547 15.603 -5.550
O 237.910 9.433 -2.406
O 257.388 4.742 -17.024
O 59.167 25.838 -18.831
O 71.107 4.880 -4.686
O 63.866 21.907 -29.639
O 43.278 6.279 -3.160
O 258.725 15.808 -17.180
O 227.292 11.675 -15.567
O 248.639 7.519 -20.314
O 27.722 3.006 -8.541
O 222.129 10.372 -3.885
O 61.105 14.234 -7.052
O 236.808 27.188 -30.595
O 52.687 18.723 -24.863
O 55.645 30.970 -26.152
O 43.782 3.444 -9.440
O 29.770 13.033 -27.610
O 230.007 12.588 -14.549
O 45.195 15.535 -29.035
O 50.523 21.072 -13.417
O 66.393 14.275 -22.740
O 36.016 0.247 -21.276
O 27.419 28.299 -26.343
O 251.394 17.958 -16.198
O 48.240 17.091 -14.651
O 62.547 30.073 -19.505
O 251.721 15.386 -5.333
O 72.478 1.107 -23.483
O 23.754 20.183 -25.898
O 257.116 16.079 -1.236
O 226.163 16.640 -0.015
O 43.971 18.211 -2.163
O 257.207 13.070 -19.841
O 231.023 26.902 -12.613
O 77.581 13.609 -4.471
O 63.369 5.147 -8.987
O 50.807 2.038 -27.051
O 222.873 10.578 -6.435
O 73.819 4.043 -26.422
O 68.341 5.183 -25.899
O 227.908 18.171 -29.809
O 30.359 22.007 -24.651
O 52.506 15.900 -10.188
O 237.997 5.721 -19.209
O 74.554 17.906 -28.726
O 47.352 14.319 -10.414
O 236.366 0.844 -25.302
O 73.182 25.581 -2.823
O 62.208 0.789 -3.472
O 27.503 9.913 -16.383
O 222.279 1.203 -19.864
O 34.642 23.337 -6.545
O 61.219 24.993 -9.676
O 27.629 3.115 -30.497
O 41.009 2.072 -28.131
O 225.308 15.622 -6.817
O 252.896 22.504 -25.597
O 40.323 5.706 -25.830
O 60.503 27.405 -4.202
O 51.514 27.651 -11.186
O 23.662 18.106 -16.720
O 247.733 23.886 -23.580
O 40.326 26.260 -4.489
O 251.781 25.127 -10.762
O 238.091 26.516 -13.982
O 242.254 25.956 -27.029
O 44.071 1.302 -0.389
O 230.475 14.544 -20.015
O 77.722 6.537 -8.293
O 66.891 19.230 -7.998
O 66.389 29.886 -4.427
O 236.729 23.697 -27.216
O 60.790 10.900 -26.301
O 59.989 6.436 -12.727
O 230.912 30.820 -10.284
O 34.215 17.102 -30.473
O 44.613 7.682 -6.704
O 243.674 18.487 -5.544
O 58.294 20.477 -13.155
O 64.697 18.500 -22.690
O 58.245 3.375 -3.728
O 62.074 3.692 -23.456
O 54.407 28.612 -16.365
O 239.883 4.630 -22.715
O 61.405 23.933 -4.485
O 226.892 29.795 -13.728
O 33.384 5.420 -27.240
O 27.879 11.504 -30.000
O 51.147 26.833 -15.105
O 65.764 27.953 -1.381
O 228.489 25.266 -2.422
O 66.812 14.872 -2.277
O 32.531 29.356 -29.899
O 240.587 30.082 -22.206
O 28.427 14.212 -16.876
O 65.793 15.125 -10.028
O 29.569 0.776 -27.026
O 245.194 29.351 -6.714
O 258.773 14.805 -14.458
O 232.426 18.990 -6.166
O 234.900 31.259 -29.397
O 71.531 12.697 -20.573
O 257.015 8.634 -13.069
O 41.345 18.457 -10.771
O 51.069 16.390 -23.834
O 36.592 12.030 -3.837
O 240.922 20.493 -27.460
O 237.782 2.060 -11.033
O 241.689 0.772 -7.257
O 258.665 30.980 -14.218
O 253.841 1.520 -10.741
O 235.872 9.973 -4.154
O 226.963 2.509 -11.615
O 44.340 14.789 -12.691
O 45.266 9.303 -28.988
O 39.033 19.798 -7.188
O 45.432 18.258 -19.841
O 47.144 13.636 -13.048
O 233.684 17.925 -11.773
O 236.980 23.967 -19.863
O 37.136 24.322 -24.213
O 252.969 13.169 -26.598
O 65.866 15.755 -6.969
O 80.077 30.433 -24.577
O 42.024 25.593 -15.805
O 33.469 13.658 -13.620
O 56.282 22.095 -19.503
O 54.819 8.748 -1.661
O 252.596 2.912 -21.497
O 33.337 25.058 -14.601
O 249.513 30.358 -18.396
O 66.364 10.745 -13.346
O 65.058 27.054 -8.335
O 39.775 28.952 -8.014
O 246.952 12.531 -9.584
O 257.258 17.873 -29.121
O 58.460 0.060 -4.660
O 237.560 19.743 -10.789
O 254.895 20.785 -23.935
O 48.104 6.783 -10.591
O 62.675 24.873 -13.754
O 27.167 2.682 -21.301
O 240.344 11.565 -27.558
O 34.137 31.282 -19.165
O 24.230 21.473 -15.365
O 231.645 31.334 -7.770
O 58.730 8.361 -7.399
O 37.015 3.395 -6.586
O 63.137 15.759 -8.061
O 61.992 10.336 -3.035
O 257.681 5.407 -1.569
O 68.748 18.988 -6.076
O 236.554 5.599 -2.284
O 29.213 8.066 -8.001
O 53.889 8.987 -4.284
O 74.284 18.254 -22.002
O 53.221 10.645 -0.121
O 255.671 15.755 -12.362
O 77.678 22.318 -7.143
O 26.082 16.156 -2.307
O 223.552 30.614 -7.818
O 245.006 14.180 -5.137
O 74.278 2.109 -6.740
O 31.937 1.072 -13.284
O 24.908 15.238 -24.139
O 62.075 8.198 -22.558
O 231.581 4.682 -3.687
O 42.202 1.190 -8.759
O 76.916 2.728 -24.552
O 30.705 0.160 -24.598
O 245.996 7.675 -23.771
O 60.851 30.932 -5.981
O 247.147 5.257 -12.003
O 254.923 19.349 -28.653
O 52.765 14.426 -19.110
O 32.129 14.918 -1.537
O 29.318 12.602 -6.367
O 252.883 18.268 -0.678
O 64.162 8.879 -13.463
O 233.609 7.880 -10.089
O 232.402 6.530 -16.967
O 65.016 20.813 -19.273
O 24.148 24.745 -28.279
O 62.172 27.457 -15.178
O 40.642 20.765 -9.215
O 246.403 2.379 -28.368
O 40.377 30.819 -6.118
O 75.039 27.201 -26.035
O 39.987 17.312 -8.287
O 36.725 7.300 -22.462
O 224.860 4.209 -23.661
O 50.277 7.749 -3.331
O 237.005 7.810 -14.038
O 47.694 11.956 -22.547
O 229.635 17.805 -16.630
O 60.294 17.274 -8.386
O 46.349 22.703 -15.268
O 53.273 19.674 -4.737
O 38.317 10.921 -16.420
O 230.268 16.244 -0.480
O 239.137 23.517 -7.803
O 47.477 20.582 -23.673
O 72.607 17.210 -26.739
O 67.916 28.201 -25.665
O 64.691 22.378 -11.726
O 234.383 30.723 -6.319
O 77.636 27.498 -27.649
O 245.122 15.034 -25.094
O 229.016 29.094 -16.558
O 57.759 25.349 -16.486
O 48.772 24.244 -15.765
O 44.509 2.494 -20.009
O 68.075 20.986 -0.169
O 228.073 24.754 -27.922
O 72.794 20.646 -25.474
O 230.239 11.616 -2.957
O 72.763 27.875 -14.063
O 54.177 0.990 -2.140
O 44.501 7.072 -24.382
O 242.588 2.361 -15.661
O 230.709 10.595 -0.285
O 29.201 5.232 -7.914
O 37.106 26.621 -1.701
O 69.065 4.203 -28.385
O 227.205 22.810 -3.424
O 58.672 14.234 -0.574
O 33.579 17.203 -19.227
O 232.472 27.604 -24.213
O 255.207 18.524 -21.034
O 50.782 9.428 -0.069
O 231.141 7.819 -11.330
O 233.989 1.130 -9.173
O 236.823 29.617 -3.599
O 251.428 1.564 -2.624
O 28.304 23.518 -13.373
O 70.917 0.328 -11.373
O 45.149 21.659 -19.481
O 29.651 13.083 -20.023
O 55.317 16.417 -10.056
O 49.552 10.198 -20.088
O 61.105 13.080 -15.986
O 48.782 17.910 -5.026
O 241.498 25.288 -14.739
O 68.060 6.860 -13.728
O 237.517 10.236 -15.104
O 72.186 19.782 -11.568
O 245.705 3.962 -15.179
O 51.189 15.319 -26.361
O 24.022 4.283 -5.240
O 225.069 27.345 -23.032
O 31.944 25.325 -21.829
O 69.186 4.009 -23.378
O 55.269 8.140 -13.288
O 34.160 17.561 -4.322
O 29.353 3.545 -16.160
O 243.344 10.876 -4.395
O 33.681 22.656 -23.749
O 239.487 10.024 -5.962
O 228.160 3.340 -27.325
O 73.806 4.027 -4.526
O 69.625 6.304 -8.052
O 246.345 10.418 -22.382
O 50.088 27.181 -1.152
O 254.073 6.669 -16.079
O 31.984 16.349 -21.341
O 61.147 3.812 -26.130
O 232.315 21.796 -14.854
O 47.956 3.359 -13.788
O 51.269 15.685 -21.012
O 32.456 13.146 -18.107
O 49.310 28.670 -29.339
O 237.686 31.014 -30.087
O 228.225 26.569 -7.682
O 248.156 11.178 -6.345
O 254.845 22.840 -12.015
O 222.002 4.794 -0.745
O 56.341 21.003 -11.508
O 34.989 20.240 -8.297
O 236.887 10.156 -27.853
O 249.740 18.163 -8.572
O 63.908 14.941 -23.986
O 225.834 17.937 -12.154
O 239.111 0.358 -27.698
O 233.074 1.357 -23.267
O 225.536 10.377 -19.126
O 258.077 5.883 -19.309
O 28.067 19.477 -7.337
O 49.908 21.346 -21.408
O 252.145 19.290 -18.544
O 30.508 5.211 -23.026
O 65.705 0.824 -1.750
O 30.900 18.741 -29.479
O 235.930 27.081 -4.507
O 254.605 21.833 -27.639
O 228.166 18.715 -13.596
O 29.915 10.472 -26.703
O 236.452 16.440 -14.712
O 25.826 10.478 -6.991
O 69.896 23.113 -21.073
O 30.412 26.078 -24.044
O 55.844 18.230 -17.742
O 53.212 13.854 -7.358
O 247.870 29.410 -26.178
O 256.091 29.149 -16.547
O 57.272 11.358 -30.182
O 248.911 1.032 -29.592
O 31.890 5.005 -8.978
O 59.957 17.124 -27.244
O 68.314 17.202 -3.944
O 239.506 16.110 -6.959
O 30.773 15.100 -25.784
O 34.453 25.239 -4.140
O 240.880 23.361 -16.741
O 36.300 16.082 -28.193
O 76.717 5.928 -30.374
O 239.906 31.396 -19.864
O 61.398 19.929 -13.943
O 65.343 5.544 -6.916
O 31.372 10.652 -12.604
O 58.111 13.891 -16.064
O 234.604 23.104 -5.012
O 47.383 20.206 -3.583
O 235.663 4.771 -5.019
O 42.550 26.559 -18.455
O 23.928 24.254 -31.165
O 41.410 18.671 -22.666
O 246.375 1.320 -11.932
O 238.822 0.561 -8.466
O 70.959 15.516 -20.937
O 53.468 7.651 -25.929
O 244.726 6.409 -21.488
O 56.831 19.773 -21.712
O 238.493 22.881 -21.829
O 69.100 23.000 -29.603
O 58.225 27.134 -14.430
O 45.790 25.217 -1.902
O 244.780 25.899 -11.681
O 60.636 22.476 -0.362
O 44.337 21.149 -30.353
O 229.035 7.620 -1.637
O 28.616 0.356 -0.561
O 60.507 1.268 -22.517
O 233.176 26.496 -14.412
O 248.362 3.832 -31.381
O 44.991 13.214 -6.925
O 64.382 5.637 -28.902
O 250.656 3.175 -30.259
O 225.460 27.091 -9.809
O 47.973 14.234 -15.469
O 230.602 25.329 -9.038
O 65.250 16.497 -21.034
O 71.681 1.095 -6.219
O 227.600 23.615 -14.088
O 256.979 28.777 -29.765
O 28.025 25.988 -27.383
O 76.057 29.887 -30.684
O 52.113 31.295 -8.572
O 223.734 12.330 -28.519
O 58.756 19.550 -26.479
O 69.061 23.355 -16.695
O 246.319 4.511 -19.891
O 42.616 22.641 -18.909
O 251.430 19.287 -30.070
O 246.277 30.104 -13.356
O 256.471 11.490 -31.055
O 56.779 7.719 -31.272
O 224.893 1.433 -22.663
O 232.057 0.979 -31.415
O 36.108 4.007 -10.407
O 61.355 7.510 -6.661
O 219.645 10.900 -4.959
O 252.465 21.149 -2.679
O 52.432 22.392 -27.118
O 44.917 25.347 -18.612
O 252.048 12.310 -11.602
O 63.356 3.095 -18.236
O 68.677 18.460 -30.812
O 236.525 24.643 -3.583
O 245.899 15.187 -21.643
O 27.018 3.800 -11.149
O 24.074 2.486 -18.582
O 58.197 27.300 -23.002
O 41.301 7.515 -12.846
O 223.549 8.987 -23.834
O 230.260 25.086 -25.735
O 230.275 7.728 -30.574
O 257.787 4.969 -6.610
O 238.627 3.795 -13.119
O 222.269 13.121 -21.967
O 75.370 21.454 -6.131
O 259.311 2.617 -29.107
O 70.184 27.360 -30.757
O 236.610 10.343 -10.551
O 26.577 10.855 -11.027
O 61.559 10.822 -14.461
O 224.343 6.572 -2.595
O 52.011 7.040 -13.801
O 230.481 23.501 -2.034
O 234.874 21.556 -16.477
O 49.418 7.861 -26.563
O 26.756 2.459 -18.662
O 258.766 2.379 -3.815
O 230.842 19.317 -3.642
O 61.583 5.659 -20.999
O 35.733 27.352 -11.649
O 232.854 22.038 -20.374
O 33.728 3.105 -29.610
O 231.751 5.318 -12.236
O 37.188 2.655 -0.550
O 43.346 8.149 -14.703
O 227.099 27.194 -17.592
O 237.933 23.156 -17.488
O 248.146 6.182 -24.487
O 74.539 15.180 -15.765
O 64.753 2.125 -12.421
O 65.061 25.600 -3.932
O 250.801 0.541 -12.572
O 26.367 11.684 -2.250
O 62.828 19.395 -9.568
O 62.800 12.851 -21.539
O 229.943 5.864 -26.292
O 221.294 29.407 -6.177
O 229.894 15.330 -10.788
O 76.473 28.395 -8.325
O 57.902 10.022 -1.178
O 43.132 15.020 -22.493
O 75.865 13.044 -16.791
O 29.985 6.717 -15.245
O 35.625 1.716 -17.647
O 39.581 25.379 -14.297
O 27.482 3.730 -14.306
O 74.366 21.940 -20.151
O 232.080 14.360 -16.487
O 39.717 12.080 -6.357
O 240.410 28.877 -11.138
O 77.962 29.390 -23.361
O 75.886 21.148 -30.686
O 39.783 28.924 -4.135
O 51.128 21.129 -23.840
O 26.604 20.884 -17.049
O 42.127 25.978 -2.523
O 31.377 9.151 -4.364
O 241.259 4.197 -1.871
O 259.278 13.886 -2.282
O 243.110 0.689 -4.924
O 254.168 31.281 -19.793
O 242.782 3.850 -25.198
O 65.696 25.266 -19.109
O 241.175 24.553 -6.182
O 65.975 20.604 -21.796
O 30.445 27.789 -18.161
O 27.786 21.428 -27.105
O 257.018 3.306 -30.907
O 221.903 4.954 -21.135
O 37.247 7.164 -28.108
O 226.186 0.217 -2.834
O 225.226 26.773 -26.928
O 59.209 10.538 -8.781
O 221.156 8.969 -17.057
O 258.727 25.227 -24.317
O 75.612 29.139 -13.644
O 53.805 10.312 -18.444
O 236.362 20.930 -0.233
O 255.377 30.776 -2.526
O 40.669 19.835 -4.848
O 61.600 25.828 -24.123
O 222.506 28.832 -23.690
O 246.545 17.594 -19.625
O 68.047 11.362 -5.931
O 233.069 23.029 -29.473
O 24.043 7.770 -12.132
O 241.701 18.456 -24.056
O 257.962 27.325 -15.176
O 258.052 23.407 -16.647
O 248.540 4.106 -18.248
O 248.553 23.059 -2.877
O 26.849 24.337 -21.595
O 234.645 27.462 -26.459
O 45.278 16.009 -10.170
O 232.969 11.542 -17.099
O 26.071 17.611 -11.764
O 41.124 11.705 -18.514
O 249.623 13.103 -9.885
O 68.808 23.873 -5.090
O 44.388 25.970 -4.057
O 28.655 23.691 -19.158
O 75.214 3.314 -20.738
O 249.882 11.223 -30.403
O 37.625 18.623 -28.252
O 34.972 0.816 -14.343
O 229.936 26.767 -15.238
O 64.015 11.021 -28.918
O 234.444 11.172 -28.442
O 37.912 31.433 -7.340
O 251.610 15.602 -24.826
O 29.342 19.389 -12.687
O 248.743 6.607 -2.246
O 65.898 17.397 -11.725
O 241.283 30.901 -3.227
O 58.449 3.024 -26.594
O 55.667 27.086 -20.543
O 35.610 31.391 -1.249
O 242.184 29.435 -24.414
O 47.392 31.011 -21.296
O 49.756 14.507 -17.614
O 28.703 27.621 -30.416
O 46.857 3.348 -18.070
O 257.249 14.024 -30.464
O 60.557 16.012 -5.176
O 33.646 11.170 -11.372
O 256.204 8.898 -22.541
O 225.538 4.765 -19.243
O 61.060 24.087 -19.982
O 232.098 16.500 -6.622
O 250.563 11.295 -8.080
O 231.774 14.448 -8.760
O 71.029 25.709 -10.451
O 34.599 21.653 -2.181
O 241.242 17.242 -5.205
O 233.465 15.418 -13.857
O 39.771 28.809 -10.808
O 232.919 16.355 -30.837
O 57.455 8.109 -26.603
O 63.204 31.373 -0.594
O 253.767 1.174 -4.165
O 225.339 26.065 -1.816
O 46.511 26.273 -24.887
O 63.599 7.621 -11.067
O 259.418 8.122 -28.644
O 231.781 13.884 -25.340
O 253.286 17.125 -23.205
O 34.948 6.844 -29.381
O 249.781 25.576 -16.956
O 30.466 28.372 -6.887
O 39.091 9.864 -18.964
O 57.826 12.261 -26.483
O 42.799 2.048 -13.903
O 245.183 0.303 -9.657
O 55.789 16.132 -29.907
O 36.583 2.211 -29.501
O 248.135 31.389 -0.610
O 45.834 15.031 -22.970
O 251.219 14.419 -13.754
O 233.666 29.521 -1.896
O 249.034 16.128 -0.705
O 59.420 16.737 -2.006
O 24.734 17.598 -26.464
O 37.373 10.761 -6.814
O 246.578 12.310 -24.355
O 224.459 20.025 -16.051
O 251.342 29.184 -30.356
O 253.822 13.924 -6.347
O 42.341 29.424 -18.896
O 37.163 16.719 -3.752
O 227.003 0.676 -26.978
O 241.281 5.405 -14.589
O 74.885 15.732 -20.413
O 56.368 10.483 -8.983
O 246.292 30.124 -19.779
O 53.238 17.255 -15.573
O 222.115 10.933 -9.586
O 234.640 9.668 -23.965
O 252.814 12.813 -8.526
O 247.254 26.059 -21.226
O 66.056 0.858 -26.950
O 58.158 27.043 -5.669
O 33.556 5.187 -11.471
O 36.330 24.387 -30.211
O 255.259 18.124 -9.987
O 239.286 27.367 -22.068
O 73.443 24.426 -18.418
O 27.551 18.602 -14.803
O 66.224 21.217 -5.106
O 58.832 12.283 -10.851
O 48.297 23.593 -22.332
O 76.582 21.457 -12.477
O 225.542 14.178 -9.201
O 33.356 24.186 -18.519
O 232.213 29.021 -6.208
O 246.400 8.579 -10.317
O 28.477 7.347 -17.203
O 32.178 11.286 -9.162
O 45.875 17.040 -0.150
O 23.740 31.265 -2.979
O 79.110 19.265 -17.118
O 242.282 13.274 -5.103
O 228.101 25.112 -11.806
O 67.388 26.117 -22.400
O 44.884 31.110 -6.868
O 222.993 27.368 -1.924
O 75.044 29.975 -21.297
O 258.024 8.831 -18.497
O 24.239 10.887 -14.151
O 233.044 7.841 -31.317
O 251.007 30.759 -24.132
O 73.523 22.728 -31.353
O 43.212 4.892 -29.146
O 47.471 13.873 0.025
O 40.167 14.869 -28.117
O 42.304 5.603 -23.761
O 235.598 3.082 -22.235
O 232.902 22.894 -7.296
O 227.359 12.800 -27.370
O 229.998 0.356 -23.475
O 35.434 11.263 -15.194
O 59.593 31.473 -13.102
O 253.765 19.380 -7.143
O 227.822 16.464 -6.996
O 61.373 14.375 -12.106
O 71.235 5.301 -29.689
O 237.311 3.449 -26.460
O 63.034 24.890 -17.446
O 252.366 9.373 -15.239
O 256.059 5.490 -28.735
O 54.141 31.157 -21.357
O 222.385 20.394 -28.137
O 66.327 13.585 -5.348
O 257.380 5.056 -21.838
O 44.156 21.030 -2.571
O 33.389 15.759 -7.570
O 254.509 8.716 -2.208
O 226.179 23.787 -18.677
O 23.559 16.530 -22.244
O 54.100 15.440 -5.386
O 71.570 0.620 -3.496
O 243.773 14.012 -22.762
O 50.197 2.735 -10.598
O 66.411 11.620 -21.768
O 75.246 15.903 -26.992
O 51.508 25.558 -27.024
O 77.846 29.271 -20.274
O 55.412 18.045 -5.975
O 35.880 9.965 -12.796
O 222.838 21.489 -22.227
O 32.500 11.197 -2.999
O 43.947 7.074 -11.461
O 48.062 22.797 -4.504
O 222.916 25.807 -6.335
O 56.750 20.860 -3.225
O 240.116 0.925 -23.838
O 34.441 22.423 -31.071
O 258.523 26.450 -29.297
O 253.740 24.494 -28.098
O 32.096 8.541 -30.807
O 43.413 30.115 -9.054
O 53.269 26.864 -13.302
O 258.633 16.334 -4.678
O 249.071 17.077 -23.701
O 40.049 18.373 -2.853
O 236.261 23.808 -7.636
O 240.049 3.939 -9.630
O 50.662 25.788 -24.103
O 224.887 1.116 -6.243
O 39.313 29.498 -18.020
O 24.008 20.461 -4.591
O 242.954 20.715 -1.804
O 53.430 6.184 -29.416
O 62.274 1.427 -29.849
O 66.005 22.670 -28.025
O 47.642 6.854 -13.454
O 233.816 6.160 -7.999
O 251.203 18.189 -11.779
O 72.160 10.620 -30.762
O 41.180 12.279 -0.170
O 258.418 19.642 -14.225
O 32.938 19.948 -18.882
O 250.202 21.840 -18.081
O 46.598 28.015 -29.307
O 75.899 24.682 -14.862
O 42.785 30.488 -21.544
O 221.944 11.882 -14.149
O 59.502 24.782 -22.270
O 24.318 30.924 -22.050
O 47.442 17.354 -7.438
O 238.997 4.072 -15.865
O 257.012 7.894 -2.281
O 32.492 25.920 -26.568
O 244.808 18.383 -14.679
O 238.737 31.027 -15.958
O 229.162 7.531 -9.271
O 256.857 7.320 -10.202
O 47.441 20.225 -6.273
O 239.048 9.544 -20.617
O 39.140 3.905 -7.984
O 41.213 14.263 -10.659
O 58.126 17.079 -28.990
O 64.551 10.973 -3.854
O 248.455 28.831 -31.247
O 36.292 11.258 -25.020
O 56.894 18.308 -8.906
O 237.202 17.979 -20.035
O 34.182 3.583 -25.247
O 230.002 12.444 -26.819
O 77.280 3.624 -17.600
O 48.372 2.723 -3.939
O 242.131 5.404 -19.161
O 231.791 9.292 -23.813
O 233.245 9.749 -3.400
O 75.296 1.112 -22.573
O 37.038 27.889 -7.355
O 66.208 17.262 -30.278
O 236.187 7.748 -5.859
O 240.869 20.105 -5.376
O 234.557 28.350 -10.032
O 241.995 0.516 -18.159
O 25.407 30.644 -10.586
O 222.589 0.812 -1.117
O 44.036 15.032 -25.875
O 235.715 0.495 -3.702
O 252.553 6.449 -1.736
O 247.498 17.702 -13.542
O 40.180 15.187 -22.585
O 62.637 26.941 -19.307
O 54.365 20.760 -17.969
O 55.078 25.207 -16.432
O 67.774 26.093 -3.546
O 78.697 1.124 -26.189
O 72.968 30.201 -30.017
O 233.961 6.981 -2.637
O 51.047 30.262 -11.016
O 37.719 20.685 -0.558
O 27.553 7.374 -0.342
O 55.608 6.384 -24.826
O 45.301 9.064 -26.000
O 229.736 7.239 -6.297
O 223.671 25.120 -23.528
O 40.197 2.473 -21.146
O 69.088 24.084 -11.916
O 242.899 11.948 -26.143
O 29.442 0.733 -15.694
O 244.502 21.129 -4.244
O 47.097 15.197 -3.542
O 221.753 3.537 -23.349
O 24.186 16.167 -8.511
O 245.572 25.624 -3.948
O 250.080 6.229 -31.361
O 249.044 23.390 -6.578
O 49.995 9.207 -10.737
O 254.747 26.986 -25.614
O 235.338 25.070 -1.005
O 53.129 16.072 -13.103
O 225.847 24.614 -5.250
O 248.408 15.403 -19.092
O 65.120 21.909 -0.743
O 258.147 0.768 -6.126
O 26.024 18.385 -18.175
O 34.773 22.823 -20.961
O 27.239 25.554 -15.056
O 231.514 28.888 -18.001
O 238.723 15.963 -3.627
O 239.965 7.304 -31.314
O 63.574 15.205 -30.634
O 230.147 9.526 -26.626
O 247.229 20.791 -4.277
O 250.267 9.126 -2.052
O 250.569 30.644 -1.538
O 76.300 27.160 -30.705
O 54.207 12.376 -20.112
O 258.746 25.540 -9.703
O 70.277 21.120 -12.749
O 59.206 30.669 -8.121
O 60.223 0.454 -1.198
O 29.941 29.844 -9.148
O 69.200 4.794 -12.728
O 49.245 9.060 -7.052
O 222.860 31.193 -22.312
O 64.547 12.225 -6.952
O 247.153 7.209 -28.863
O 37.139 31.355 -15.793
O 253.713 20.753 -21.530
O 31.159 19.521 -16.762
O 79.049 0.578 -10.803
O 247.867 3.376 -24.247
O 251.929 23.543 -16.679
O 46.787 4.496 -29.231
O 73.200 27.340 -0.217
O 73.844 12.814 -31.178
O 55.650 1.525 -8.039
O 50.650 4.565 -14.515
O 251.559 11.230 -28.186
O 48.278 30.792 -11.149
O 228.291 14.454 -12.842
O 75.923 11.819 -6.003
O 72.019 15.122 -13.194
O 63.455 30.434 -8.498
O 29.420 3.641 -5.619
O 228.527 10.310 -9.186
O 33.931 6.029 -6.583
O 45.815 10.044 -3.031
O 225.644 27.060 -20.009
O 72.482 15.488 -3.173
O 232.403 18.183 -28.688
O 71.773 15.036 -29.050
O 259.460 11.285 -7.302
O 29.411 9.373 -31.196
O 69.877 19.925 -8.632
O 51.041 12.141 -30.180
O 239.202 24.736 -4.292
O 232.743 13.058 -21.917
O 222.214 7.967 -25.827
O 246.011 6.976 -2.383
O 255.098 30.904 -14.483
O 41.834 27.319 -13.579
O 41.977 23.941 -0.508
O 40.134 0.946 -23.593
O 33.852 3.740 -2.760
O 245.845 11.002 -7.506
O 29.253 14.428 -12.078
O 57.108 8.056 -15.425
O 218.847 9.740 -7.611
O 228.497 2.616 -22.696
O 45.465 4.346 -21.730
O 32.757 26.936 -8.931
O 218.502 13.070 -29.616
O 41.703 18.526 -0.588
O 46.536 21.408 -1.343
O 256.292 26.558 -8.685
O 24.430 7.883 -14.880
O 55.108 6.043 -17.801
O 255.022 13.939 -14.690
O 49.244 13.540 -8.354
O 23.970 28.607 -12.074
O 27.051 27.298 -20.982
O 48.998 5.377 -3.230
O 69.165 13.679 -28.990
O 75.560 18.113 -17.604
O 26.365 31.401 -6.071
O 226.483 29.231 -11.088
O 227.621 8.438 -22.016
O 78.576 21.662 -15.483
O 231.152 23.546 -16.539
O 51.270 5.455 -10.065
O 69.458 6.879 -22.648
O 53.157 24.961 -8.479
O 238.539 0.658 -2.987
O 235.229 0.392 -19.416
O 65.164 27.756 -25.499
O 65.892 19.925 -12.904
O 67.262 6.906 -21.050
O 77.832 5.612 -5.090
O 222.651 1.580 -28.133
O 70.341 25.426 -7.696
O 240.419 29.885 -26.504
O 47.538 8.253 -16.333
O 67.498 30.124 -1.986
O 73.820 27.388 -9.569
O 59.117 6.086 -30.105
O 25.211 27.921 -18.488
O 241.167 5.893 -24.952
O 64.897 3.046 -9.812
O 25.660 7.229 -17.465
O 73.122 8.289 -21.300
O 26.226 30.778 -3.451
O 67.357 1.728 -23.241
O 73.329 0.614 -9.927
O 256.882 20.822 -4.417
O 60.873 20.716 -18.344
O 72.861 12.682 -3.481
O 242.653 28.526 -28.012
O 67.852 30.975 -8.498
O 237.635 22.841 -24.598
O 247.404 30.403 -9.826
O 70.005 29.534 -16.882
O 234.609 6.533 -20.826
O 223.572 22.008 -4.541
O 254.361 11.867 -13.130
O 48.248 28.268 -24.758
O 233.177 25.319 -16.867
O 240.056 28.737 -17.584
O 235.269 27.674 -21.860
O 258.044 27.978 -2.050
O 27.197 30.030 -8.462
O 67.426 24.610 -7.298
O 35.099 24.773 -11.071
O 244.444 4.313 -10.488
O 30.434 1.246 -6.118
O 56.533 23.236 -13.412
O 41.789 22.434 -3.896
O 67.293 15.581 -13.444
O 247.207 31.192 -17.585
O 244.355 13.008 -12.938
O 62.833 28.998 -23.892
O 44.453 12.977 -28.803
O 50.642 4.576 -17.345
O 33.361 4.921 -22.946
O 25.193 4.421 -30.296
O 68.858 0.468 -31.221
O 252.768 25.769 -14.761
O 227.540 13.629 -21.770
O 23.730 10.915 -3.306
O 247.303 17.662 -9.715
O 53.569 22.469 -23.069
O 52.413 27.566 -18.097
O 55.845 1.688 -10.932
O 46.632 15.866 -26.942
O 44.792 20.277 -15.281
O 36.380 2.903 -12.909
O 249.932 4.322 -14.285
O 77.367 0.078 -28.713
O 227.060 11.485 -5.208
O 64.418 6.856 -19.959
O 230.294 19.939 -20.605
O 40.112 21.289 -14.126
O 258.853 19.745 -30.400
O 236.647 9.586 -31.184
O 256.821 28.721 -26.568
O 222.210 27.914 -29.289
O 54.532 28.210 -6.294
O 43.587 17.624 -24.660
O 70.408 29.966 -2.289
O 222.328 3.691 -26.003
O 255.813 31.380 -26.684
O 221.323 20.284 -3.993
O 76.615 15.231 -7.045
O 63.549 8.944 -30.762
O 236.237 23.198 -11.721
O 53.019 14.200 -3.301
O 246.441 16.231 -1.780
O 224.917 29.751 -30.232
O 250.486 4.588 -6.854
O 40.282 26.139 -30.871
O 223.066 14.745 -19.623
O 253.826 16.925 -19.444
O 59.282 5.790 -26.986
O 223.382 13.791 -3.968
O 36.239 23.166 -17.581
O 229.181 9.704 -29.177
O 54.310 30.424 -0.323
O 253.848 10.972 -0.710
O 230.520 26.830 -19.456
O 29.052 16.013 -14.830
O 53.236 29.721 -29.163
O 74.044 0.770 -0.237
O 33.980 1.022 -22.873
O 256.490 12.760 -16.409
O 248.370 11.370 -26.732
O 248.931 3.167 -11.701
O 258.081 17.177 -13.156
O 54.020 19.923 -10.346
O 71.713 21.965 -29.197
O 241.061 6.829 -2.285
O 239.032 12.022 -9.864
O 253.657 29.214 -29.076
O 58.487 22.845 -15.385
O 252.229 14.402 -20.314
O 28.229 9.318 -2.523
O 243.474 3.307 -3.341
O 24.949 12.493 -26.259
O 59.502 0.448 -15.953
O 34.287 7.470 -13.323
O 220.413 6.222 -24.664
O 238.041 9.907 -18.030
O 55.208 27.088 -23.269
O 62.643 16.545 -17.515
O 41.399 20.633 -30.136
O 72.657 12.000 -12.703
O 234.229 8.949 -17.251
O 243.195 1.410 -23.863
O 44.163 28.452 -4.772
C 217.400 26.604 -9.067
O 218.429 26.176 -9.386
O 216.370 27.032 -8.748
C 81.375 26.236 -5.358
O 81.445 25.636 -6.348
O 81.304 26.837 -4.368
C 208.816 16.439 -20.972
O 207.752 16.027 -21.178
O 209.881 16.851 -20.765
C 72.377 3.124 -12.794
O 73.136 2.282 -12.547
O 71.618 3.965 -13.041
C 220.073 5.088 -28.408
O 219.135 5.672 -28.056
O 221.011 4.503 -28.761
C 82.005 16.733 -5.664
O 80.924 16.511 -5.308
O 83.087 16.955 -6.021
C 157.382 6.769 -7.295
O 157.934 5.763 -7.460
O 156.830 7.776 -7.129
C 84.659 23.560 -29.569
O 83.698 23.994 -30.053
O 85.620 23.126 -29.086
C 68.464 20.145 -16.554
O 69.589 20.395 -16.426
O 67.338 19.896 -16.683
C 154.995 0.721 -26.614
O 155.093 0.318 -25.530
O 154.896 1.124 -27.697
C 77.566 13.282 -22.127
O 77.306 13.979 -21.237
O 77.827 12.585 -23.017
C 199.913 8.378 -21.340
O 200.570 8.158 -22.270
O 199.256 8.598 -20.409
C 175.798 21.375 -13.299
O 174.902 20.726 -13.646
O 176.694 22.024 -12.952
C 77.869 5.733 -15.999
O 77.833 6.321 -16.998
O 77.905 5.145 -15.000
C 118.487 20.328 -8.609
O 118.502 21.173 -9.403
O 118.472 19.482 -7.815
C 216.856 0.119 -9.555
O 216.452 31.449 -8.473
O 217.260 0.220 -10.638
C 211.289 25.262 -12.209
O 212.227 24.953 -11.599
O 210.352 25.571 -12.818
C 115.070 5.066 -6.055
O 115.501 4.056 -6.429
O 114.639 6.076 -5.681
C 149.693 5.404 -7.678
O 150.045 4.849 -6.722
O 149.341 5.960 -8.634
C 137.209 11.741 -13.894
O 137.225 10.828 -14.609
O 137.194 12.654 -13.179
C 201.824 21.345 -5.503
O 202.877 21.608 -5.912
O 200.771 21.081 -5.094
C 186.215 23.050 -20.186
O 185.393 22.645 -20.897
O 187.038 23.455 -19.475
C 99.208 7.403 -4.643
O 98.051 7.375 -4.720
O 100.365 7.431 -4.567
C 199.766 5.395 -26.812
O 199.387 6.435 -26.465
O 200.145 4.355 -27.160
C 129.435 28.308 -15.901
O 129.300 27.569 -15.018
O 129.570 29.047 -16.785
C 162.379 31.176 -5.540
O 161.657 0.403 -6.164
O 163.101 30.517 -4.916
C 82.007 29.605 -3.494
O 82.909 29.009 -3.915
O 81.105 30.201 -3.074
C 210.545 13.050 -24.605
O 210.549 14.045 -25.202
O 210.541 12.056 -24.008
C 236.132 16.873 -8.787
O 235.224 17.594 -8.823
O 237.040 16.153 -8.750
C 135.983 17.194 -28.015
O 134.907 17.201 -28.450
O 137.058 17.186 -27.580
C 88.805 7.701 -23.003
O 88.280 8.718 -22.813
O 89.330 6.685 -23.193
C 218.957 3.591 -10.225
O 219.590 4.455 -9.779
O 218.325 2.728 -10.672
C 166.832 12.726 -11.249
O 166.260 13.571 -11.801
O 167.405 11.882 -10.697
C 81.898 21.378 -19.798
O 81.661 22.222 -20.558
O 82.134 20.534 -19.038
C 151.557 6.647 -4.675
O 152.696 6.429 -4.649
O 150.418 6.866 -4.700
C 220.475 0.327 -8.970
O 221.176 1.218 -8.724
O 219.774 30.868 -9.216
C 186.449 31.316 -0.612
O 187.118 0.579 -31.401
O 185.781 30.620 -1.256
C 80.682 10.139 -27.206
O 80.088 9.531 -26.416
O 81.276 10.746 -27.995
C 195.126 14.773 -21.505
O 196.021 14.203 -21.034
O 194.232 15.343 -21.976
C 207.778 24.483 -12.235
O 207.337 24.616 -13.300
O 208.219 24.351 -11.170
C 190.510 23.360 -26.779
O 191.665 23.295 -26.701
O 189.354 23.425 -26.857
C 82.182 14.784 -14.998
O 83.049 14.668 -15.759
O 81.314 14.900 -14.236
C 157.295 5.306 -28.413
O 156.297 5.762 -28.036
O 158.292 4.849 -28.791
C 218.709 30.502 -20.802
O 219.756 30.586 -21.294
O 217.662 30.417 -20.311
C 78.080 1.443 -21.146
O 78.675 1.706 -22.107
O 77.486 1.180 -20.185
C 153.264 21.980 -11.020
O 152.453 21.946 -10.191
O 154.075 22.015 -11.849
C 182.477 9.221 -9.973
O 183.204 8.636 -10.662
O 181.749 9.807 -9.284
C 67.153 13.700 -19.146
O 68.036 13.736 -19.897
O 66.270 13.664 -18.395
C 152.695 29.945 -28.956
O 153.676 29.692 -28.393
O 151.713 30.199 -29.519
C 79.709 14.050 -11.864
O 80.726 14.376 -11.411
O 78.692 13.724 -12.316
C 80.791 3.509 -1.825
O 80.285 2.702 -2.487
O 81.298 4.315 -1.163
C 197.644 12.816 -24.038
O 197.924 11.697 -24.161
O 197.365 13.935 -23.915
C 217.599 1.904 -2.067
O 216.890 1.015 -2.297
O 218.308 2.793 -1.837
C 219.405 0.567 -30.231
O 220.269 0.819 -29.499
O 218.541 0.315 -30.963
C 220.900 25.296 -27.314
O 221.130 25.695 -26.249
O 220.670 24.897 -28.378
C 74.351 9.566 -11.717
O 74.946 9.943 -10.796
O 73.755 9.190 -12.639
C 204.637 11.082 -24.878
O 205.060 10.439 -24.009
O 204.215 11.724 -25.746
C 182.820 16.032 -13.789
O 182.525 17.066 -14.223
O 183.116 14.998 -13.354
C 152.574 0.378 -11.851
O 152.534 1.390 -12.416
O 152.615 30.799 -11.285
C 86.758 28.161 -13.018
O 87.365 28.659 -12.165
O 86.151 27.663 -13.872
C 117.476 25.849 -25.619
O 118.399 26.063 -24.950
O 116.553 25.635 -26.288
C 220.429 15.142 -30.520
O 219.618 15.626 -31.194
O 221.241 14.659 -29.847
C 79.896 16.980 -23.908
O 79.974 17.222 -22.776
O 79.818 16.738 -25.039
C 212.804 1.317 -19.907
O 213.245 1.878 -18.992
O 212.364 0.756 -20.822
C 216.443 20.895 -6.556
O 216.298 20.259 -7.515
O 216.589 21.530 -5.596
C 85.111 28.076 -17.263
O 84.026 28.290 -16.913
O 86.196 27.862 -17.613
C 200.920 12.582 -29.215
O 201.525 13.180 -28.427
O 200.314 11.983 -30.003
C 82.417 29.110 -12.031
O 83.466 28.614 -12.021
O 81.368 29.605 -12.040
C 192.039 28.481 -26.681
O 192.159 27.341 -26.503
O 191.918 29.621 -26.858
C 109.099 29.317 -17.002
O 110.127 29.472 -16.486
O 108.072 29.162 -17.518
C 246.713 8.455 -4.926
O 247.535 7.879 -5.507
O 245.890 9.031 -4.346
C 173.234 24.545 -0.867
O 172.077 24.512 -0.798
O 174.392 24.579 -0.935
C 43.044 24.052 -27.576
O 43.846 23.249 -27.338
O 42.241 24.855 -27.814
C 75.451 9.258 -22.853
O 74.767 10.131 -23.193
O 76.135 8.385 -22.513
C 196.351 10.386 -19.858
O 196.300 9.468 -19.151
O 196.402 11.304 -20.564
C 212.666 28.309 -8.799
O 213.116 27.485 -8.118
O 212.217 29.134 -9.481
C 116.864 18.516 -21.273
O 117.641 19.297 -21.636
O 116.086 17.735 -20.910
C 218.887 30.000 -25.712
O 218.146 30.878 -25.550
O 219.628 29.122 -25.875
C 218.417 8.105 -18.116
O 218.715 7.888 -19.216
O 218.118 8.322 -17.017
C 221.637 20.731 -14.142
O 220.748 21.105 -14.786
O 222.526 20.357 -13.497
C 242.380 24.363 -1.912
O 242.914 24.019 -2.883
O 241.846 24.707 -0.942
C 161.369 6.594 -0.866
O 161.708 7.684 -0.659
O 161.030 5.504 -1.073
C 203.246 22.726 -25.790
O 202.665 21.858 -25.284
O 203.827 23.593 -26.295
C 188.491 6.733 -17.343
O 189.564 7.140 -17.174
O 187.418 6.327 -17.512
C 206.802 6.980 -31.284
O 207.591 6.138 -31.164
O 206.012 7.821 -31.404
C 159.610 12.472 -28.497
O 158.749 12.218 -29.232
O 160.471 12.726 -27.762
C 163.743 12.681 -26.281
O 163.506 13.512 -25.507
O 163.981 11.850 -27.055
C 170.232 10.005 -9.054
O 169.658 10.842 -8.493
O 170.807 9.167 -9.615
C 83.126 28.915 -8.402
O 83.697 29.290 -7.464
O 82.556 28.540 -9.340
C 103.823 13.133 -29.737
O 103.687 13.838 -30.649
O 103.959 12.429 -28.825
C 128.016 17.892 -24.226
O 128.916 18.003 -23.503
O 127.116 17.782 -24.950
C 206.842 15.880 -9.177
O 207.171 14.894 -8.663
O 206.512 16.866 -9.691
C 214.439 25.169 -26.840
O 214.301 26.146 -27.449
O 214.577 24.191 -26.231
C 113.473 24.171 -14.161
O 112.700 24.626 -13.425
O 114.246 23.715 -14.896
C 244.217 6.366 -15.451
O 244.064 5.894 -16.499
O 244.370 6.838 -14.402
C 136.769 14.918 -4.713
O 136.506 14.529 -3.652
O 137.032 15.307 -5.774
C 85.737 28.267 -29.949
O 85.656 28.324 -28.793
O 85.817 28.209 -31.105
C 159.532 4.417 -4.890
O 160.466 3.855 -5.288
O 158.598 4.979 -4.493
C 172.912 12.736 -3.735
O 173.439 13.628 -3.213
O 172.384 11.845 -4.256
C 80.053 10.511 -12.728
O 80.337 10.878 -11.665
O 79.770 10.144 -13.791
C 153.398 10.881 -29.058
O 152.423 11.400 -29.412
O 154.374 10.363 -28.704
C 165.458 8.729 -13.386
O 165.745 8.210 -12.389
O 165.172 9.248 -14.383
C 179.435 12.059 -14.028
O 178.797 11.104 -14.190
O 180.072 13.015 -13.866
C 80.841 10.120 -18.134
O 80.861 8.962 -18.061
O 80.822 11.277 -18.207
C 177.192 5.285 -11.681
O 176.923 4.897 -10.621
O 177.461 5.672 -12.741
C 212.261 17.866 -29.265
O 213.371 17.585 -29.078
O 211.151 18.146 -29.451
C 175.960 0.345 -2.528
O 176.854 0.974 -2.916
O 175.066 31.148 -2.140
C 107.517 15.988 -10.785
O 106.813 16.064 -11.704
O 108.221 15.912 -9.866
C 96.717 30.053 -28.804
O 97.626 29.909 -28.098
O 95.807 30.196 -29.510
C 126.103 13.018 -6.483
O 125.249 12.248 -6.640
O 126.956 13.788 -6.327
C 190.682 26.587 -6.064
O 190.707 26.685 -7.219
O 190.656 26.488 -4.908
C 101.394 14.377 -28.040
O 101.632 15.250 -28.765
O 101.156 13.503 -27.315
C 131.482 15.601 -4.329
O 132.573 15.226 -4.205
O 130.391 15.976 -4.453
C 212.578 7.766 -25.324
O 212.231 6.750 -24.885
O 212.924 8.782 -25.764
C 55.734 19.174 -14.260
O 55.629 18.105 -13.820
O 55.839 20.242 -14.700
C 210.634 0.937 -4.203
O 209.898 0.093 -4.505
O 211.370 1.781 -3.900
C 215.135 29.601 -27.793
O 214.010 29.740 -27.547
O 216.260 29.462 -28.039
C 79.027 20.789 -27.093
O 79.253 20.151 -28.035
O 78.801 21.428 -26.151
C 210.427 23.977 -31.008
O 209.534 23.741 -30.306
O 211.320 24.214 -0.278
C 192.148 7.248 -8.813
O 191.097 7.046 -8.365
O 193.199 7.449 -9.261
C 105.744 28.980 -19.959
O 106.361 29.800 -20.500
O 105.126 28.160 -19.419
C 217.151 17.500 -30.444
O 217.671 18.163 -31.241
O 216.631 16.836 -29.648
C 79.466 30.190 -5.667
O 78.906 29.352 -5.092
O 80.026 31.027 -6.242
C 81.056 26.942 -17.167
O 81.209 26.648 -16.055
O 80.902 27.237 -18.278
C 102.146 0.894 -5.143
O 101.032 1.123 -4.914
O 103.260 0.666 -5.372
C 136.860 25.299 -18.140
O 137.015 26.098 -18.967
O 136.705 24.501 -17.312
C 219.553 18.250 -20.420
O 218.987 17.715 -19.561
O 220.120 18.784 -21.280
C 154.894 4.336 -21.324
O 155.700 5.027 -21.791
O 154.088 3.645 -20.856
C 218.647 25.654 -13.680
O 218.423 25.535 -12.548
O 218.872 25.773 -14.812
C 158.955 9.292 -3.671
O 158.375 10.203 -3.248
O 159.534 8.380 -4.094
C 85.459 9.344 -20.078
O 85.421 10.098 -19.198
O 85.498 8.589 -20.958
C 155.315 3.684 -25.621
O 156.397 3.317 -25.820
O 154.233 4.052 -25.422
C 218.010 21.770 -11.704
O 217.116 21.546 -12.409
O 218.904 21.994 -11.000
C 122.322 8.815 -16.923
O 122.955 8.539 -17.856
O 121.690 9.091 -15.991
C 160.328 26.698 -21.791
O 160.228 25.859 -22.585
O 160.427 27.537 -20.996
C 135.843 19.393 -13.967
O 136.228 20.094 -13.127
O 135.458 18.692 -14.807
C 170.922 29.007 -2.950
O 171.669 28.299 -2.416
O 170.175 29.716 -3.484
C 209.409 27.478 -0.571
O 209.915 28.437 -0.159
O 208.902 26.519 -0.982
C 171.438 1.077 -30.831
O 170.656 0.298 -30.474
O 172.221 1.855 -31.187
C 159.805 14.932 -8.281
O 158.863 15.380 -7.773
O 160.747 14.485 -8.789
C 163.900 26.902 -27.290
O 163.709 26.072 -28.077
O 164.091 27.732 -26.503
C 175.886 1.433 -17.306
O 176.093 0.418 -17.829
O 175.678 2.447 -16.784
C 134.583 8.259 -13.296
O 134.593 9.052 -14.143
O 134.573 7.467 -12.449
C 83.911 5.491 -12.588
O 83.767 4.439 -13.055
O 84.055 6.543 -12.121
C 80.615 2.694 -20.031
O 80.812 1.742 -19.397
O 80.419 3.646 -20.664
C 215.668 9.484 -28.864
O 215.337 8.618 -28.167
O 216.000 10.349 -29.561
C 49.740 21.983 -17.749
O 48.748 22.243 -18.291
O 50.732 21.723 -17.207
C 109.676 2.520 -22.615
O 109.434 2.999 -23.643
O 109.919 2.040 -21.587
C 81.988 4.389 -16.902
O 80.941 4.665 -17.319
O 83.035 4.114 -16.486
C 128.275 30.534 -6.143
O 128.803 29.540 -6.423
O 127.746 0.095 -5.862
C 83.252 18.141 -13.967
O 83.824 18.662 -13.102
O 82.680 17.620 -14.831
C 83.506 6.641 -7.814
O 82.975 6.121 -6.924
O 84.038 7.162 -8.704
C 164.931 19.010 -14.871
O 165.850 19.049 -14.163
O 164.013 18.970 -15.579
C 114.106 6.417 -14.083
O 114.291 7.147 -14.966
O 113.920 5.688 -13.200
C 217.391 23.227 -3.320
O 218.393 22.690 -3.548
O 216.388 23.764 -3.091
C 184.488 26.646 -16.029
O 183.574 26.149 -16.542
O 185.402 27.144 -15.517
C 78.102 15.720 -30.816
O 77.267 15.400 -30.077
O 78.936 16.041 -0.123
C 81.084 2.387 -13.774
O 81.306 1.270 -13.554
O 80.862 3.504 -13.995
C 215.860 11.043 -5.250
O 215.286 10.444 -6.060
O 216.434 11.642 -4.439
C 136.988 27.641 -13.799
O 137.147 28.769 -14.019
O 136.829 26.513 -13.578
C 115.285 21.315 -7.922
O 115.133 20.170 -7.819
O 115.436 22.461 -8.026
C 148.097 26.453 -24.271
O 148.515 25.408 -23.990
O 147.679 27.498 -24.552
C 212.895 25.798 -20.802
O 213.386 25.477 -19.801
O 212.404 26.118 -21.803
C 211.923 25.832 -16.742
O 212.569 25.151 -16.061
O 211.276 26.513 -17.423
C 204.962 5.817 -15.674
O 204.280 5.719 -16.608
O 205.644 5.915 -14.741
C 127.369 30.240 -12.664
O 127.516 31.326 -12.282
O 127.222 29.154 -13.045
C 219.501 24.846 -0.947
O 220.365 25.562 -1.243
O 218.637 24.131 -0.651
C 82.809 20.472 -26.294
O 83.540 19.747 -26.828
O 82.077 21.196 -25.760
C 98.115 11.681 -6.644
O 98.584 12.300 -7.505
O 97.646 11.062 -5.782
C 47.541 8.994 -31.183
O 47.599 7.996 -30.595
O 47.483 9.992 -0.340
C 83.129 24.838 -19.991
O 83.195 24.379 -18.927
O 83.062 25.297 -21.054
C 79.760 19.838 -6.651
O 79.883 19.971 -7.796
O 79.637 19.705 -5.505
C 155.654 20.328 -14.279
O 154.936 19.476 -13.957
O 156.372 21.180 -14.602
C 54.936 13.177 -23.723
O 55.320 13.535 -22.689
O 54.551 12.819 -24.757
C 84.473 30.922 -25.258
O 85.320 30.430 -25.879
O 83.625 31.414 -24.637
C 218.330 24.220 -17.505
O 218.291 24.941 -18.413
O 218.369 23.499 -16.598
C 210.226 7.466 -3.750
O 209.929 7.444 -4.872
O 210.522 7.487 -2.629
C 133.636 7.290 -21.233
O 133.024 8.218 -21.564
O 134.248 6.361 -20.901
C 24.683 28.058 -23.107
O 25.290 28.707 -23.853
O 24.077 27.408 -22.362
C 149.577 0.939 -22.907
O 148.825 1.619 -22.344
O 150.328 0.258 -23.470
C 206.228 13.879 -12.204
O 205.335 14.256 -11.567
O 207.121 13.502 -12.841
C 50.555 30.180 -17.212
O 51.052 31.192 -17.484
O 50.057 29.169 -16.941
C 122.011 10.594 -1.476
O 121.150 10.794 -2.227
O 122.872 10.394 -0.726
C 201.794 31.336 -0.522
O 200.819 30.711 -0.585
O 202.769 0.529 -0.459
C 194.949 19.589 -3.724
O 195.156 19.199 -4.796
O 194.741 19.979 -2.651
C 185.168 3.924 -5.296
O 184.965 4.700 -4.459
O 185.370 3.147 -6.134
C 215.517 2.090 -25.782
O 215.885 2.932 -25.074
O 215.150 1.248 -26.491
C 93.888 0.912 -27.656
O 93.613 0.545 -28.722
O 94.162 1.279 -26.591
C 138.500 4.611 -20.716
O 137.613 3.973 -20.328
O 139.387 5.250 -21.105
C 182.461 0.470 -0.279
O 181.826 0.930 -1.134
O 183.096 31.443 -30.857
C 137.297 30.215 -10.405
O 136.688 29.253 -10.183
O 137.906 31.177 -10.626
C 31.547 1.678 -1.838
O 31.004 2.408 -2.557
O 32.090 0.949 -1.118
C 218.503 6.417 -7.201
O 217.431 6.787 -7.448
O 219.574 6.047 -6.955
C 81.960 23.756 -12.289
O 82.371 22.815 -12.829
O 81.549 24.697 -11.749
C 135.356 10.373 -27.624
O 134.432 10.811 -28.172
O 136.279 9.935 -27.076
C 159.507 27.125 -3.744
O 158.513 26.707 -3.316
O 160.501 27.542 -4.172
C 179.599 30.475 -8.493
O 179.387 0.077 -8.972
O 179.811 29.439 -8.014
C 219.528 1.414 -13.788
O 220.231 2.117 -13.190
O 218.826 0.711 -14.386
C 96.335 13.142 -30.475
O 96.415 12.055 -30.871
O 96.254 14.229 -30.079
C 219.879 1.483 -4.913
O 220.754 0.723 -4.959
O 219.005 2.244 -4.867
C 145.241 18.146 -2.595
O 145.798 19.115 -2.283
O 144.685 17.177 -2.907
C 179.152 22.576 -8.890
O 178.006 22.643 -8.721
O 180.298 22.510 -9.059
C 81.340 1.612 -9.358
O 81.807 0.573 -9.579
O 80.874 2.651 -9.137
C 194.163 8.724 -0.933
O 194.304 9.360 -31.405
O 194.022 8.087 -1.892
C 103.513 2.213 -9.403
O 102.452 2.030 -9.836
O 104.573 2.396 -8.970
C 79.248 28.951 -30.926
O 79.409 28.291 -0.434
O 79.087 29.612 -29.986
C 218.765 12.007 -12.451
O 219.127 10.911 -12.333
O 218.403 13.102 -12.568
C 184.254 11.918 -3.490
O 184.355 10.888 -4.014
O 184.154 12.948 -2.966
C 216.753 13.976 -7.026
O 216.931 15.054 -6.637
O 216.574 12.898 -7.416
C 24.903 19.854 -9.614
O 25.683 20.089 -8.789
O 24.123 19.618 -10.440
C 252.277 21.902 -30.213
O 251.745 22.050 -29.193
O 252.809 21.754 -31.233
C 194.110 11.779 -24.808
O 194.846 12.501 -25.339
O 193.374 11.057 -24.277
C 190.609 16.116 -19.093
O 191.728 16.192 -19.389
O 189.490 16.039 -18.798
C 178.567 31.371 -30.504
O 178.899 30.767 -31.438
O 178.235 0.542 -29.571
C 80.969 13.375 -24.549
O 81.373 12.657 -25.366
O 80.564 14.092 -23.732
C 208.924 24.243 -16.098
O 209.655 23.661 -15.411
O 208.193 24.825 -16.786
C 219.141 15.014 -22.363
O 219.529 14.832 -21.285
O 218.753 15.196 -23.441
C 106.991 30.431 -0.347
O 106.272 29.560 -0.084
O 107.710 31.302 -0.610
C 148.330 17.319 -30.510
O 147.446 18.021 -30.779
O 149.214 16.618 -30.241
C 112.006 29.465 -25.940
O 111.254 29.612 -26.811
O 112.757 29.317 -25.068
C 122.442 3.498 -13.934
O 121.598 2.796 -13.561
O 123.287 4.200 -14.306
C 130.312 15.592 -15.525
O 130.555 15.121 -14.493
O 130.070 16.062 -16.557
C 76.673 19.624 -23.988
O 76.614 18.792 -24.795
O 76.733 20.455 -23.181
C 158.818 12.601 -24.329
O 157.836 13.030 -24.772
O 159.800 12.171 -23.887
C 116.243 13.766 -23.945
O 116.235 12.938 -24.757
O 116.252 14.594 -23.132
C 123.255 17.653 -12.637
O 122.691 16.808 -13.196
O 123.819 18.499 -12.078
C 160.894 30.172 -24.028
O 162.042 30.034 -24.127
O 159.747 30.310 -23.930
C 208.200 11.869 -26.709
O 209.011 11.172 -26.260
O 207.389 12.566 -27.158
C 140.004 8.100 -8.486
O 139.298 7.317 -8.969
O 140.709 8.884 -8.003
C 217.675 28.996 -17.165
O 218.210 29.479 -16.256
O 217.140 28.512 -18.073
C 79.065 5.877 -23.913
O 80.063 6.069 -24.471
O 78.066 5.684 -23.355
C 199.589 11.662 -18.733
O 198.542 12.017 -18.383
O 200.637 11.306 -19.084
C 116.013 3.407 -14.672
O 115.126 2.662 -14.725
O 116.901 4.152 -14.619
C 93.720 9.113 -9.739
O 93.765 8.412 -10.662
O 93.675 9.814 -8.816
C 135.850 21.222 -23.415
O 136.560 20.306 -23.470
O 135.140 22.138 -23.360
C 148.523 4.348 -27.502
O 148.437 5.496 -27.358
O 148.608 3.200 -27.646
C 207.698 12.669 -21.504
O 208.370 13.308 -22.201
O 207.026 12.031 -20.807
C 117.547 1.339 -27.178
O 118.139 1.756 -28.085
O 116.956 0.923 -26.271
C 159.104 0.448 -27.341
O 159.126 0.102 -28.448
O 159.083 0.793 -26.234
C 217.381 5.204 -13.047
O 217.699 4.111 -13.268
O 217.062 6.298 -12.826
C 214.593 8.770 -23.207
O 213.849 9.457 -22.641
O 215.337 8.083 -23.772
C 221.899 23.383 -11.390
O 221.620 22.880 -12.398
O 222.177 23.886 -10.383
C 155.263 17.200 -30.079
O 154.886 16.243 -30.614
O 155.641 18.157 -29.543
C 202.966 19.905 -28.363
O 203.036 21.063 -28.371
O 202.895 18.747 -28.354
C 157.408 23.430 -19.883
O 156.957 22.749 -20.707
O 157.859 24.110 -19.059
C 190.584 6.763 -21.520
O 190.324 5.663 -21.258
O 190.843 7.863 -21.782
C 149.667 15.241 -17.393
O 150.150 15.258 -18.447
O 149.184 15.224 -16.338
C 193.416 19.866 -19.870
O 193.471 20.565 -20.794
O 193.360 19.167 -18.946
C 252.701 15.278 -0.607
O 251.902 15.639 -31.279
O 253.499 14.918 -1.368
C 79.099 13.366 -15.670
O 79.736 13.961 -16.436
O 78.462 12.771 -14.905
C 92.099 21.855 -6.209
O 92.011 22.994 -6.409
O 92.186 20.715 -6.009
C 160.211 8.726 -26.295
O 159.384 9.264 -25.684
O 161.037 8.188 -26.906
C 177.364 29.460 -27.335
O 176.516 28.992 -27.974
O 178.212 29.927 -26.697
C 127.296 19.550 -30.842
O 127.419 18.614 -30.168
O 127.174 20.487 -0.084
C 76.163 31.386 -2.185
O 75.459 30.663 -2.757
O 76.868 0.676 -1.614
C 157.868 18.535 -2.490
O 157.864 19.483 -3.159
O 157.873 17.587 -1.821
C 82.040 27.826 -27.158
O 82.468 27.148 -27.997
O 81.613 28.503 -26.319
C 219.713 2.400 -26.233
O 219.248 3.412 -25.907
O 220.177 1.389 -26.560
C 220.041 18.765 -25.095
O 220.021 17.642 -25.385
O 220.060 19.888 -24.805
C 201.520 15.645 -14.199
O 201.902 14.551 -14.144
O 201.137 16.739 -14.255
C 137.766 4.237 -24.952
O 137.195 4.356 -25.955
O 138.337 4.118 -23.950
C 112.542 14.546 -23.145
O 112.333 13.587 -23.763
O 112.750 15.506 -22.528
C 168.133 29.141 -19.522
O 167.364 28.317 -19.249
O 168.902 29.965 -19.795
C 157.605 5.920 -0.706
O 157.933 4.926 -1.207
O 157.277 6.913 -0.204
C 205.544 0.409 -29.292
O 204.424 0.680 -29.419
O 206.665 0.138 -29.165
C 77.916 13.027 -28.630
O 78.305 13.651 -27.733
O 77.527 12.402 -29.527
C 141.588 1.801 -26.991
O 142.474 2.227 -26.375
O 140.703 1.375 -27.606
C 169.368 14.756 -29.706
O 168.537 14.571 -30.494
O 170.198 14.940 -28.917
C 218.208 3.586 -22.244
O 218.014 4.632 -21.783
O 218.402 2.539 -22.706
C 217.481 26.744 -23.020
O 218.104 25.971 -23.620
O 216.858 27.517 -22.420
C 129.262 18.790 -2.760
O 129.831 19.048 -3.737
O 128.693 18.532 -1.782
C 77.502 24.156 -11.249
O 77.277 24.684 -12.257
O 77.728 23.629 -10.241
C 114.784 20.750 -11.800
O 115.139 20.015 -10.976
O 114.429 21.485 -12.624
C 83.635 5.420 -21.036
O 82.998 5.736 -20.120
O 84.272 5.104 -21.953
C 212.970 1.463 -15.005
O 213.728 0.601 -15.172
O 212.212 2.325 -14.837
C 105.927 4.530 -7.801
O 106.771 4.546 -8.597
O 105.084 4.513 -7.004
C 76.452 6.883 -25.495
O 76.546 5.736 -25.642
O 76.358 8.030 -25.347
C 133.480 16.367 -1.163
O 133.664 15.229 -1.293
O 133.296 17.505 -1.032
C 80.265 23.177 -2.899
O 80.857 24.163 -3.053
O 79.673 22.192 -2.744
C 193.151 23.892 -1.358
O 192.941 24.588 -0.454
O 193.360 23.196 -2.262
C 205.273 15.765 -30.505
O 204.565 14.847 -30.532
O 205.982 16.683 -30.478
C 209.875 17.336 -10.906
O 210.408 18.222 -10.380
O 209.342 16.450 -11.432
C 125.873 21.994 -22.958
O 125.811 21.239 -23.836
O 125.934 22.750 -22.080
C 144.239 21.009 -5.122
O 143.902 22.008 -5.607
O 144.575 20.011 -4.637
C 150.753 1.098 -26.250
O 151.177 2.053 -25.746
O 150.329 0.143 -26.753
C 216.960 2.511 -19.065
O 216.848 3.193 -18.134
O 217.072 1.828 -19.996
C 182.107 21.948 -25.380
O 181.587 22.934 -25.059
O 182.628 20.962 -25.700
C 215.302 7.583 -4.194
O 216.061 8.458 -4.257
O 214.542 6.709 -4.130
C 137.800 14.906 -23.912
O 136.777 14.368 -24.007
O 138.824 15.444 -23.817
C 126.881 24.837 -12.416
O 127.731 24.117 -12.095
O 126.030 25.557 -12.737
C 79.168 27.488 -13.034
O 78.068 27.633 -12.697
O 80.269 27.344 -13.371
C 216.229 12.314 -16.456
O 217.031 11.489 -16.605
O 215.428 13.139 -16.308
C 114.266 27.607 -12.509
O 113.972 27.330 -13.596
O 114.559 27.885 -11.421
C 101.298 13.675 -22.499
O 101.974 14.580 -22.236
O 100.623 12.769 -22.762
C 69.501 13.383 -2.087
O 69.331 13.464 -0.942
O 69.671 13.303 -3.231
C 134.677 17.508 -17.964
O 133.736 17.897 -18.519
O 135.618 17.119 -17.408
C 88.282 18.093 -13.329
O 89.261 18.476 -12.838
O 87.304 17.712 -13.820
C 201.132 16.637 -3.424
O 200.459 16.891 -2.514
O 201.806 16.382 -4.333
C 153.704 9.657 -2.899
O 154.800 9.999 -3.061
O 152.607 9.315 -2.737
C 161.327 1.541 -17.837
O 160.265 1.126 -17.625
O 162.389 1.956 -18.050
C 183.214 2.949 -2.693
O 182.452 3.429 -3.424
O 183.976 2.470 -1.961
C 224.823 19.491 -20.715
O 224.110 18.974 -19.961
O 225.536 20.008 -21.470
C 202.457 2.495 -28.287
O 201.735 1.588 -28.340
O 203.178 3.402 -28.234
C 158.417 30.375 -13.832
O 157.647 31.141 -14.241
O 159.187 29.610 -13.424
C 217.155 27.949 -2.586
O 217.483 27.147 -1.815
O 216.828 28.752 -3.357
C 165.083 28.509 -2.643
O 165.583 27.985 -3.548
O 164.583 29.034 -1.737
C 80.753 7.536 -5.345
O 81.290 7.525 -4.317
O 80.215 7.547 -6.373
C 220.064 9.577 -29.422
O 219.772 9.520 -28.300
O 220.356 9.635 -30.543
C 128.230 16.216 -20.141
O 128.821 15.255 -19.869
O 127.639 17.176 -20.413
C 34.966 27.350 -27.282
O 34.703 28.371 -26.799
O 35.229 26.328 -27.765
C 156.930 1.743 -21.790
O 156.054 2.004 -22.503
O 157.807 1.482 -21.076
3933
Lattice="31.432 0 0 0 31.432 0 0 0 224.522" Properties=species:S:1:pos:R:3 timestep=36215000
O 43.526 7.911 -16.185
O 46.190 15.112 -5.241
O 77.004 1.085 -26.256
O 236.300 30.642 -29.192
O 55.821 2.880 -27.217
O 70.039 8.479 -0.198
O 246.261 24.388 -21.584
O 78.913 26.465 -25.343
O 38.339 11.415 -16.344
O 221.828 0.529 -23.894
O 251.959 0.564 -31.022
O 224.541 0.593 -22.921
O 50.267 19.908 -2.768
O 226.460 30.160 -23.354
O 90.410 31.322 -21.950
O 76.133 29.626 -28.417
O 66.115 18.256 -15.770
O 82.162 1.141 -5.481
O 32.369 9.318 -3.188
O 81.695 28.528 -22.169
O 37.321 21.915 -5.032
O 229.127 23.131 -21.942
O 33.338 5.374 -2.073
O 243.536 30.957 -24.170
O 234.189 9.525 -10.787
O 225.357 25.690 -23.410
O 81.602 20.195 -15.093
O 233.317 27.457 -3.222
O 86.217 11.996 -23.079
O 76.461 17.401 -31.058
O 52.472 3.969 -10.162
O 246.292 12.278 -15.936
O 237.648 28.652 -25.280
O 74.026 3.641 -6.845
O 61.161 21.594 -18.976
O 35.627 8.894 -1.052
O 230.480 30.744 -13.390
O 246.656 30.988 -5.655
O 88.806 14.122 -1.248
O 228.409 7.298 -8.258
O 75.939 14.066 -9.348
O 59.436 14.185 -21.686
O 51.419 1.738 -28.197
O 36.186 17.010 -19.165
O 63.032 2.146 -21.004
O 34.404 13.305 -7.473
O 73.977 0.132 -4.462
O 224.739 13.883 -22.849
O 91.286 2.644 -22.193
O 58.984 20.721 -14.624
O 231.480 24.101 -19.251
O 44.850 3.173 -0.984
O 220.822 13.550 -24.013
O 238.603 22.069 -6.538
O 228.565 10.194 -28.895
O 84.938 19.080 -9.098
O 31.576 26.319 -19.965
O 86.895 19.018 -5.432
O 38.383 13.564 -21.692
O 249.713 6.447 -29.747
O 62.120 1.093 -27.758
O 60.123 10.858 -26.405
O 84.888 26.358 -6.770
O 41.787 19.686 -21.369
O 46.237 3.729 -13.046
O 247.922 1.485 -9.668
O 252.862 7.443 -7.932
O 225.479 0.775 -12.796
O 76.300 23.013 -16.637
O 41.397 23.861 -13.097
O 47.182 12.736 -11.376
O 246.891 19.249 -3.123
O 245.746 13.239 -2.557
O 245.720 10.117 -11.930
O 41.925 26.419 -1.335
O 63.572 29.190 -24.172
O 41.993 18.075 -23.438
O 235.074 4.916 -18.445
O 59.406 11.620 -23.797
O 85.842 21.814 -26.969
O 78.523 21.286 -19.912
O 29.478 2.444 -0.401
O 69.436 0.461 -20.547
O 46.428 30.413 -20.585
O 36.021 24.943 -13.781
O 225.255 18.427 -27.192
O 42.429 13.798 -3.428
O 55.369 21.528 -4.299
O 84.442 23.208 -4.507
O 72.106 15.838 -0.928
O 82.004 27.425 -11.115
O 231.784 24.245 -28.980
O 87.642 2.629 -12.855
O 52.497 14.213 -7.952
O 224.983 11.081 -18.491
O 240.317 21.187 -18.065
O 248.630 19.982 -23.949
O 74.648 2.617 -22.313
O 47.051 20.786 -24.450
O 249.431 3.515 -16.512
O 84.538 1.412 -15.507
O 86.927 16.430 -30.397
O 232.760 0.872 -12.879
O 58.862 11.886 -14.690
O 231.277 3.563 -30.441
O 65.151 21.449 -22.531
O 237.512 26.693 -27.182
O 230.207 19.801 -9.082
O 40.208 3.666 -23.295
O 53.319 20.442 -2.742
O 90.565 10.204 -28.099
O 80.375 1.836 -19.039
O 65.712 17.047 -13.337
O 58.805 18.957 -10.623
O 82.503 9.995 -20.472
O 63.331 6.294 -7.747
O 30.054 10.961 -27.856
O 251.836 12.639 -21.165
O 246.923 17.929 -24.718
O 65.805 17.715 -19.592
O 48.619 19.162 -16.356
O 47.866 5.115 -14.621
O 70.802 17.131 -11.373
O 225.782 30.230 -26.158
O 37.967 27.384 -6.765
O 83.083 11.832 -17.311
O 36.724 2.422 -6.256
O 239.632 3.461 -19.322
O 239.559 10.941 -20.851
O 228.083 1.211 -2.084
O 224.647 13.397 -9.019
O 35.752 24.581 -21.047
O 38.533 28.492 -9.190
O 50.103 28.030 -19.429
O 223.143 17.410 -25.680
O 43.075 22.479 -10.355
O 61.932 28.547 -30.222
O 62.556 15.262 -31.092
O 55.117 5.037 -6.195
O 222.527 4.345 -20.370
O 60.629 7.313 -0.346
O 39.673 14.068 -28.945
O 72.318 0.953 -26.808
O 53.654 21.537 -29.999
O 51.321 4.237 -22.642
O 69.475 5.582 -10.921
O 226.333 12.068 -12.506
O 78.968 0.186 -2.773
O 249.777 3.887 -26.212
O 45.715 27.649 -0.944
O 45.686 11.799 -26.223
O 38.249 29.691 -5.449
O 30.413 20.721 -17.219
O 58.889 17.586 -15.025
O 71.594 15.770 -23.114
O 235.273 9.551 -23.089
O 77.555 25.155 -18.103
O 71.857 26.835 -10.902
O 67.933 15.492 -8.863
O 46.409 4.752 -17.230
O 87.375 6.992 -31.199
O 43.245 19.402 -6.424
O 69.817 10.775 -4.732
O 30.781 17.514 -7.285
O 30.611 19.266 -14.085
O 60.910 22.994 -21.730
O 79.445 6.247 -3.267
O 251.669 14.291 -27.738
O 244.752 19.629 -15.669
O 82.185 22.229 -2.880
O 30.871 15.085 -13.957
O 54.384 7.404 -25.465
O 42.502 7.719 -31.400
O 227.102 4.753 -15.086
O 73.513 13.288 -29.864
O 237.265 24.143 -29.802
O 61.507 20.142 -22.488
O 228.101 25.664 -5.126
O 87.510 28.209 -31.286
O 54.229 17.073 -17.949
O 54.612 7.908 -9.959
O 44.443 21.609 -23.838
O 35.885 8.538 -23.446
O 227.002 4.156 -25.103
O 34.315 12.712 -25.448
O 31.618 0.980 -2.033
O 50.602 5.085 -14.758
O 241.054 21.168 -22.679
O 253.686 12.819 -2.476
O 57.620 23.472 -5.979
O 38.241 2.246 -26.828
O 230.678 14.123 -0.568
O 86.499 11.097 -19.761
O 68.199 2.715 -23.587
O 69.353 29.584 -10.252
O 54.192 29.226 -2.466
O 34.551 9.125 -4.709
O 246.742 28.969 -26.995
O 59.619 5.120 -30.352
O 81.428 15.359 -21.837
O 249.148 20.913 -1.549
O 49.883 1.762 -12.617
O 88.548 31.240 -15.854
O 227.151 20.331 -15.695
O 238.395 14.072 -5.438
O 227.251 2.722 -0.064
O 74.498 21.876 -2.386
O 251.479 18.433 -13.081
O 222.663 3.708 -23.768
O 53.956 2.306 -6.449
O 234.440 12.359 -12.906
O 230.642 12.034 -3.486
O 53.825 16.304 -8.984
O 84.652 19.042 -23.640
O 77.256 28.445 -1.041
O 224.569 20.988 -15.778
O 243.712 22.154 -12.989
O 239.205 23.062 -21.753
O 248.241 12.550 -10.397
O 37.115 26.715 -0.442
O 244.253 27.882 -28.576
O 48.530 20.249 -8.951
O 67.371 24.817 -21.375
O 39.583 30.206 -12.882
O 250.039 26.138 -4.765
O 235.134 31.324 -25.919
O 70.414 14.890 -12.950
O 36.225 7.285 -30.304
O 67.645 21.508 -16.629
O 225.594 9.121 -24.086
O 250.970 20.886 -30.606
O 71.334 12.951 -21.262
O 61.245 4.082 -23.229
O 67.555 17.455 -11.258
O 234.969 25.285 -3.031
O 81.354 4.665 -28.909
O 235.905 28.349 -30.581
O 253.455 21.690 -22.919
O 66.629 1.985 -11.560
O 55.239 21.058 -13.626
O 71.081 16.296 -5.371
O 59.441 1.635 -0.642
O 33.825 27.831 -16.478
O 61.005 30.556 -24.554
O 44.544 10.525 -1.383
O 76.201 12.688 -12.566
O 31.413 8.090 -20.052
O 239.790 25.197 -1.840
O 35.023 10.159 -16.448
O 233.195 0.156 -29.129
O 38.504 26.129 -18.783
O 49.307 12.547 -28.774
O 236.054 30.470 -5.461
O 229.619 4.238 -22.726
O 231.470 17.623 -23.733
O 30.193 28.760 -21.691
O 59.275 16.236 -11.156
O 37.885 24.569 -8.347
O 224.899 24.400 -3.524
O 249.789 21.288 -28.233
O 229.300 2.448 -7.287
O 42.901 11.780 -10.933
O 247.441 7.405 -26.317
O 48.042 2.048 -6.694
O 235.065 16.386 -10.849
O 80.441 24.379 -3.543
O 58.884 11.270 -6.420
O 63.944 1.683 -29.669
O 67.943 5.281 -15.651
O 64.386 24.295 -4.926
O 65.495 26.000 -25.183
O 81.461 13.208 -15.627
O 250.784 30.704 -23.032
O 74.379 28.703 -17.492
O 59.052 3.707 -19.484
O 233.251 19.666 -20.928
O 76.322 1.328 -2.583
O 34.645 20.954 -13.649
O 44.334 17.582 -4.313
O 53.546 18.308 -22.032
O 46.808 26.062 -12.261
O 247.292 2.393 -21.142
O 82.332 18.523 -18.976
O 38.463 26.149 -29.687
O 47.727 14.952 -20.473
O 242.628 15.092 -2.792
O 50.749 0.675 -20.679
O 45.116 17.042 -29.924
O 241.306 28.561 -29.643
O 48.440 3.676 -11.370
O 87.460 18.148 -1.276
O 232.701 17.575 -9.446
O 66.350 12.162 -5.942
O 246.096 14.646 -9.358
O 231.569 15.653 -25.832
O 235.001 2.385 -3.776
O 80.827 14.761 -8.031
O 43.111 2.672 -28.706
O 79.985 28.878 -0.143
O 33.340 22.818 -9.986
O 48.928 8.366 -23.482
O 248.452 6.426 -16.432
O 35.759 4.696 -30.442
O 45.346 10.782 -4.564
O 71.757 27.338 -26.369
O 50.296 23.278 -30.235
O 34.133 29.466 -20.312
O 82.139 16.093 -15.610
O 71.699 24.936 -5.054
O 247.382 9.712 -9.584
O 36.481 30.686 -24.950
O 42.303 31.361 -21.215
O 231.239 21.441 -20.615
O 43.932 21.934 -7.658
O 34.652 11.358 -2.879
O 79.907 18.856 -28.492
O 54.244 15.598 -25.530
O 29.184 15.736 -24.001
O 46.096 6.075 -28.427
O 58.010 29.321 -16.916
O 71.385 11.242 -2.591
O 222.462 7.978 -19.530
O 248.344 16.982 -29.790
O 248.178 0.536 -19.310
O 32.195 23.445 -30.777
O 224.737 15.322 -0.286
O 67.575 2.615 -15.169
O 30.413 29.383 -17.011
O 250.128 22.443 -21.087
O 63.978 29.619 -3.104
O 87.849 16.736 -11.592
O 42.126 16.008 -5.635
O 81.689 8.911 -17.660
O 70.395 3.594 -21.857
O 59.201 15.783 -17.141
O 232.714 9.800 -21.771
O 75.968 19.705 -14.653
O 83.258 23.931 -28.655
O 60.161 16.089 -19.740
O 78.903 9.460 -30.018
O 32.394 15.463 -19.196
O 86.927 7.213 -19.304
O 78.101 21.422 -3.780
O 249.004 1.298 -5.415
O 234.512 14.858 -22.773
O 72.634 29.803 -2.360
O 232.991 24.971 -6.988
O 56.352 14.102 -2.038
O 57.393 21.955 -2.541
O 54.871 6.322 -21.394
O 74.992 1.638 -27.807
O 90.180 5.486 -27.110
O 74.141 21.176 -13.139
O 240.377 27.888 -16.019
O 228.092 22.016 -13.923
O 39.028 31.412 -25.700
O 226.084 15.292 -20.868
O 85.250 12.994 -8.625
O 221.509 6.145 -22.103
O 76.847 14.700 -30.435
O 231.173 3.181 -25.713
O 73.919 19.285 -6.007
O 34.910 22.492 -31.296
O 87.527 18.251 -8.117
O 67.250 10.882 -26.610
O 246.606 26.803 -15.007
O 241.230 23.129 -5.665
O 63.862 3.027 -13.925
O 90.038 23.422 -7.916
O 239.564 18.979 -30.926
O 71.526 5.188 -6.616
O 88.487 6.303 -4.099
O 245.585 6.018 -4.486
O 81.681 12.178 -11.636
O 247.939 24.268 -15.216
O 46.091 26.326 -22.033
O 29.284 8.944 -29.913
O 63.348 26.689 -20.717
O 247.819 2.155 -30.203
O 85.674 28.431 -10.932
O 40.598 20.028 -1.076
O 76.367 1.861 -20.279
O 225.027 15.941 -24.552
O 52.939 18.450 -0.979
O 78.911 6.804 -24.573
O 72.549 0.975 -15.269
O 58.540 4.607 -14.735
O 241.035 15.537 -8.113
O 234.151 23.674 -9.711
O 76.083 3.616 -1.105
O 44.323 9.941 -18.004
O 44.761 23.491 -15.883
O 75.377 17.331 -4.581
O 54.021 23.510 -13.234
O 251.424 28.453 -16.100
O 51.205 29.398 -24.084
O 54.898 24.303 -22.868
O 49.176 26.977 -17.053
O 64.075 18.278 -2.191
O 224.860 8.503 -3.977
O 87.955 15.351 -15.692
O 64.113 16.934 -16.857
O 40.105 1.387 -19.712
O 252.276 4.151 -6.390
O 236.890 25.480 -6.634
O 231.443 25.698 -2.187
O 238.269 7.221 -19.905
O 78.385 17.093 -2.844
O 77.701 15.857 -19.873
O 60.730 0.186 -14.066
O 49.543 23.189 -2.768
O 35.603 23.360 -2.358
O 237.968 22.098 -25.162
O 223.088 1.802 -21.015
O 248.860 4.037 -8.325
O 233.923 23.152 -18.135
O 78.669 30.053 -16.276
O 251.950 13.785 -25.074
O 43.564 5.432 -1.920
O 64.167 27.161 -5.045
O 46.771 10.966 -15.861
O 40.883 18.443 -9.682
O 245.736 4.689 -11.966
O 75.428 1.344 -12.414
O 53.318 2.421 -21.933
O 86.408 19.191 -26.531
O 86.329 21.261 -19.121
O 38.195 28.610 -22.832
O 77.960 28.550 -11.884
O 227.042 23.492 -23.582
O 83.088 11.642 -26.816
O 54.599 14.332 -28.936
O 64.053 19.143 -21.925
O 70.563 2.973 -14.837
O 41.873 14.034 -14.363
O 236.244 22.896 -16.407
O 59.217 20.020 -27.567
O 52.743 30.049 -29.627
O 242.573 8.872 -3.698
O 88.832 15.399 -20.431
O 58.503 14.129 -29.081
O 243.178 2.239 -5.416
O 50.438 24.809 -10.157
O 237.932 12.031 -18.972
O 29.931 12.904 -29.734
O 52.291 1.544 -16.285
O 231.826 3.041 -3.456
O 67.554 8.697 -30.415
O 74.095 21.410 -17.496
O 250.843 26.757 -11.494
O 81.292 1.864 -21.763
O 57.213 26.893 -23.127
O 89.692 18.442 -13.291
O 244.898 22.426 -26.845
O 48.839 30.411 -19.184
O 39.919 22.677 -10.970
O 232.338 27.300 -24.997
O 67.142 20.397 -20.998
O 37.234 30.267 -16.282
O 86.238 21.651 -23.175
O 58.859 23.286 -24.912
O 55.691 24.788 -4.312
O 250.961 10.607 -24.395
O 228.502 26.203 -30.142
O 52.155 5.448 -17.294
O 88.183 27.360 -25.076
O 239.493 1.972 -3.046
O 77.466 27.241 -21.853
O 73.742 17.902 -30.474
O 231.040 30.049 -29.403
O 45.078 9.129 -14.377
O 250.412 8.027 -23.194
O 79.281 19.632 -2.024
O 70.522 22.263 -4.847
O 45.438 22.441 -4.935
O 227.065 26.612 -27.526
O 92.965 22.735 -22.826
O 226.542 16.753 -2.375
O 236.203 1.688 -6.814
O 32.244 0.953 -7.877
O 65.630 6.514 -25.629
O 226.309 11.621 -23.200
O 63.952 13.018 -8.923
O 70.440 0.942 -2.042
O 86.107 22.554 -2.271
O 52.270 3.337 -4.489
O 51.362 14.515 -16.631
O 37.000 8.510 -18.019
O 40.838 25.165 -9.501
O 36.948 23.668 -29.847
O 73.407 0.509 -23.512
O 229.157 17.111 -31.093
O 60.469 16.232 -23.564
O 39.662 4.417 -26.008
O 91.129 23.678 -18.127
O 30.117 25.794 -10.476
O 79.620 7.653 -27.805
O 223.537 10.164 -0.174
O 47.928 24.762 -20.963
O 34.924 25.091 -28.203
O 238.499 4.392 -30.399
O 40.740 0.894 -11.593
O 78.196 18.207 -8.473
O 217.162 6.111 -6.499
O 251.741 1.640 -14.512
O 87.949 5.243 -28.464
O 53.123 24.924 -2.744
O 85.726 21.793 -7.188
O 88.403 11.210 -6.859
O 29.564 2.873 -13.306
O 56.863 3.321 -20.975
O 245.384 24.798 -18.970
O 43.182 19.799 -25.549
O 79.968 3.585 -12.230
O 37.575 18.401 -9.755
O 33.784 6.774 -13.442
O 75.559 14.347 -17.514
O 65.096 27.292 -9.194
O 74.320 22.752 -11.055
O 43.861 17.857 -11.677
O 57.658 23.652 -22.369
O 230.318 28.796 -11.351
O 250.746 2.213 -20.099
O 253.148 19.578 -19.219
O 42.570 21.838 -0.170
O 220.770 14.796 -26.597
O 249.359 14.333 -0.106
O 40.468 6.803 -29.879
O 237.529 22.931 -13.720
O 46.342 8.875 -22.255
O 243.710 23.668 -29.260
O 91.916 21.739 -12.678
O 80.651 23.346 -28.977
O 40.567 30.847 -5.146
O 86.063 10.332 -8.116
O 242.772 28.282 -21.442
O 64.756 10.896 -1.010
O 74.568 18.478 -10.566
O 56.401 14.566 -21.974
O 243.830 12.704 -17.188
O 243.325 20.070 -27.088
O 55.116 17.520 -27.199
O 64.844 28.705 -31.342
O 227.663 17.672 -26.134
O 84.998 2.544 -29.916
O 35.852 24.089 -25.491
O 76.573 15.123 -2.158
O 92.056 26.126 -19.997
O 230.381 18.563 -6.614
O 38.379 15.389 -4.290
O 243.011 17.567 -15.980
O 226.761 11.728 -9.442
O 81.412 10.846 -23.401
O 41.865 25.580 -5.234
O 48.042 9.730 -1.695
O 51.804 16.853 -26.305
O 86.984 24.430 -26.497
O 50.116 13.777 -9.295
O 72.553 22.271 -15.058
O 88.721 21.114 -4.299
O 37.075 15.538 -15.296
O 57.606 7.212 -29.916
O 240.436 14.939 -19.879
O 87.048 17.740 -18.999
O 44.222 31.232 -9.129
O 242.356 7.939 -9.920
O 51.646 25.729 -30.729
O 244.015 1.413 -14.249
O 38.084 2.904 -13.167
O 30.885 5.363 -13.152
O 84.289 19.589 -6.338
O 248.724 31.260 -2.298
O 47.450 12.708 -3.918
O 80.234 24.612 -17.644
O 64.936 14.765 -21.908
O 43.141 18.061 -16.398
O 45.601 3.186 -27.543
O 40.955 28.864 -23.234
O 48.149 1.527 -28.204
O 51.390 15.831 -29.966
O 36.665 11.348 -10.418
O 64.762 3.207 -25.319
O 229.364 12.699 -27.676
O 52.494 4.818 -25.209
O 247.580 22.602 -28.316
O 78.014 8.876 -22.644
O 68.603 30.890 -8.043
O 65.263 28.489 -26.614
O 252.650 22.473 -6.911
O 61.223 17.275 -26.924
O 80.604 11.873 -2.330
O 82.638 5.744 -0.202
O 248.324 4.321 -22.845
O 65.350 31.105 -19.976
O 229.770 21.285 -26.565
O 88.708 0.461 -29.022
O 35.665 15.357 -8.835
O 48.337 21.380 -14.714
O 227.654 28.121 -11.315
O 86.382 30.826 -27.932
O 236.936 14.402 -9.898
O 58.628 9.767 -28.849
O 61.123 20.059 -12.704
O 60.743 9.200 -6.374
O 253.682 17.462 -21.776
O 248.471 24.706 -0.710
O 81.781 20.396 -23.373
O 243.348 9.728 -16.344
O 230.107 17.901 -27.252
O 226.419 22.349 -2.262
O 72.640 2.278 -12.402
O 81.331 23.041 -14.475
O 222.755 17.370 -31.270
O 34.788 26.145 -1.971
O 85.931 0.103 -13.087
O 251.449 5.384 -24.650
O 86.505 29.233 -17.002
O 89.202 20.575 -25.858
O 38.398 11.796 -5.186
O 248.209 27.848 -19.296
O 87.686 2.751 -29.954
O 51.826 3.541 -12.956
O 231.753 17.399 -20.914
O 247.268 4.775 -30.341
O 69.379 15.268 -21.497
O 237.675 8.078 -9.793
O 252.746 29.433 -10.512
O 57.118 19.381 -23.581
O 66.178 24.353 -17.399
O 82.152 9.303 -11.970
O 234.898 10.937 -19.568
O 222.264 16.703 -28.624
O 49.717 19.207 -24.720
O 89.039 24.217 -21.687
O 226.661 6.062 -2.291
O 70.844 28.705 -5.862
O 33.927 16.897 -4.088
O 46.439 29.209 -30.375
O 33.593 16.186 -31.079
O 61.783 10.150 -11.899
O 30.330 25.396 -28.246
O 69.647 3.381 -29.948
O 58.321 13.646 -8.139
O 56.610 20.327 -16.420
O 62.864 26.432 -14.893
O 37.065 4.788 -11.084
O 29.410 22.831 -28.233
O 80.083 12.188 -27.650
O 70.335 26.852 -3.611
O 74.098 23.054 -5.964
O 71.504 31.267 -18.064
O 224.779 11.492 -27.231
O 48.987 11.540 -8.123
O 218.048 8.109 -8.350
O 229.362 14.167 -4.769
O 71.117 18.299 -28.527
O 234.976 26.634 -28.738
O 69.556 31.255 -5.455
O 80.138 26.502 -1.567
O 235.803 28.924 -20.498
O 83.331 25.587 -0.105
O 33.892 10.497 -18.821
O 34.962 14.372 -11.398
O 49.437 22.325 -5.382
O 79.556 4.044 -21.393
O 70.469 13.524 -17.965
O 47.265 11.795 -23.343
O 239.972 9.625 -10.789
O 248.224 15.572 -25.102
O 88.102 13.961 -18.038
O 45.764 0.198 -28.516
O 240.274 10.828 -25.078
O 241.250 19.512 -4.809
O 244.086 16.291 -27.854
O 39.275 7.227 -25.943
O 252.403 16.456 -18.515
O 65.095 25.580 -13.422
O 54.962 0.871 -23.262
O 78.808 10.849 -13.909
O 250.373 28.378 -0.079
O 80.200 9.503 -1.168
O 47.279 5.561 -30.903
O 75.400 7.714 -13.614
O 76.553 10.467 -30.570
O 229.333 4.034 -12.871
O 62.373 4.546 -25.526
O 234.776 25.335 -31.234
O 30.721 1.639 -19.438
O 242.116 14.782 -31.092
O 244.803 6.421 -24.760
O 245.176 31.279 -26.438
O 244.993 26.965 -17.227
O 63.373 0.656 -12.774
O 87.119 8.529 -10.090
O 42.734 24.363 -7.596
O 224.985 27.743 -16.180
O 86.385 26.834 -21.985
O 71.191 7.949 -7.409
O 35.515 14.574 -3.341
O 250.155 8.246 -26.204
O 38.876 8.838 -29.337
O 250.084 12.253 -29.227
O 37.777 29.384 -0.016
O 232.731 4.386 -1.358
O 245.238 22.160 -8.209
O 232.131 1.208 -0.137
O 46.500 6.917 -8.916
O 62.757 13.177 -28.932
O 58.042 25.722 -25.598
O 68.192 24.188 -10.677
O 88.419 23.083 -15.048
O 250.742 30.541 -29.007
O 90.297 17.261 -21.650
O 59.318 6.962 -16.222
O 231.299 21.147 -17.880
O 36.925 14.706 -29.548
O 30.815 28.598 -6.929
O 231.637 29.473 -16.260
O 36.829 21.766 -15.748
O 74.927 22.760 -23.753
O 36.522 18.564 -7.376
O 223.275 20.550 -9.970
O 90.573 27.996 -23.513
O 57.370 8.900 -10.662
O 46.887 24.058 -1.464
O 68.721 27.182 -6.846
O 35.592 10.299 -21.158
O 35.352 27.363 -6.555
O 245.739 19.994 -30.386
O 53.129 16.286 -5.445
O 65.606 21.700 -5.607
O 235.007 29.510 -8.058
O 54.029 0.169 -26.130
O 78.059 31.191 -5.304
O 72.239 22.501 -27.785
O 233.666 4.428 -24.567
O 242.846 25.232 -1.449
O 238.057 3.125 -23.217
O 47.222 22.329 -26.996
O 232.509 12.021 -20.415
O 52.587 11.634 -16.846
O 88.106 22.900 -6.084
O 239.176 17.999 -23.770
O 42.385 11.273 -6.517
O 31.085 13.872 -22.229
O 47.158 14.040 -24.902
O 244.284 0.140 -4.132
O 251.217 1.859 -24.303
O 44.409 1.054 -4.815
O 57.583 31.318 -23.197
O 61.672 25.519 -22.290
O 220.588 10.354 -27.741
O 32.487 3.827 -28.791
O 233.603 22.226 -23.654
O 241.883 20.113 -0.407
O 63.128 26.712 -17.946
O 79.694 25.490 -7.864
O 235.523 18.059 -13.128
O 50.929 12.530 -19.345
O 243.065 1.047 -7.842
O 243.878 24.564 -4.757
O 88.754 24.080 -28.503
O 40.476 9.787 -9.038
O 236.886 9.414 -7.102
O 239.423 21.700 -15.331
O 56.164 30.899 -1.518
O 227.503 20.922 -30.453
O 55.132 9.102 -16.052
O 248.276 23.529 -5.763
O 36.850 1.191 -30.745
O 72.082 28.998 -8.900
O 30.222 4.246 -7.790
O 50.079 23.034 -27.498
O 78.024 2.280 -30.860
O 250.598 18.078 -31.360
O 58.846 2.743 -29.140
O 55.415 15.845 -6.793
O 84.768 9.748 -16.339
O 50.703 16.585 -1.142
O 68.023 15.709 -19.039
O 227.582 26.080 -13.209
O 80.046 25.523 -15.101
O 84.753 7.534 -24.094
O 224.023 10.719 -6.846
O 84.253 22.037 -24.871
O 237.908 6.579 -25.017
O 29.523 23.284 -25.165
O 79.164 14.489 -26.086
O 43.422 15.407 -1.315
O 231.256 24.411 -9.468
O 36.812 1.600 -17.493
O 247.567 28.464 -24.399
O 75.102 24.856 -21.661
O 43.629 24.096 -27.982
O 40.271 16.624 -7.510
O 79.162 1.613 -14.232
O 221.436 12.680 -19.290
O 80.612 0.035 -12.524
O 85.250 26.102 -27.560
O 219.631 4.853 -25.790
O 38.522 17.899 -5.905
O 31.593 0.903 -14.295
O 32.122 30.553 -22.518
O 237.890 9.152 -22.047
O 66.603 29.074 -10.996
O 64.386 5.593 -29.423
O 56.573 4.992 -12.634
O 72.838 7.892 -15.375
O 40.581 19.332 -26.817
O 245.972 28.465 -4.235
O 232.689 6.900 -21.406
O 83.978 21.305 -29.137
O 79.519 26.250 -28.027
O 57.287 9.147 -7.021
O 81.082 28.892 -19.258
O 36.339 13.364 -17.564
O 72.152 28.925 -19.087
O 70.159 30.886 -26.141
O 241.490 14.344 -13.028
O 243.216 10.738 -23.024
O 54.136 0.269 -18.006
O 43.048 15.751 -26.829
O 85.620 26.400 -30.464
O 35.619 5.064 -19.619
O 58.544 13.870 -0.402
O 33.767 2.619 -2.619
O 82.589 31.399 -20.313
O 53.724 22.168 -6.569
O 83.394 24.185 -22.222
O 228.730 25.695 -2.621
O 240.622 8.939 -1.863
O 54.043 28.403 -16.616
O 226.243 11.922 -3.608
O 72.413 16.214 -16.310
O 87.415 29.198 -4.113
O 236.978 11.261 -30.710
O 41.414 15.764 -30.042
O 80.968 19.968 -30.910
O 239.492 4.920 -4.698
O 65.174 13.725 -24.868
O 67.050 4.083 -9.849
O 252.553 19.017 -15.489
O 250.611 10.455 -6.304
O 251.038 7.230 -3.181
O 247.845 27.579 -5.859
O 50.454 5.172 -5.245
O 242.317 25.141 -13.394
O 235.701 10.174 -27.203
O 35.730 6.307 -16.996
O 41.609 22.996 -3.341
O 223.313 5.922 -27.933
O 83.002 18.310 -1.282
O 50.879 6.190 -8.653
O 245.273 14.216 -26.479
O 247.768 19.343 -28.591
O 66.946 12.764 -28.546
O 57.828 26.539 -2.543
O 252.326 11.156 -14.565
O 63.242 29.397 -21.347
O 59.879 8.629 -20.919
O 45.640 26.305 -14.779
O 237.799 19.118 -10.307
O 49.239 28.554 -25.994
O 31.977 17.088 -1.802
O 233.099 9.815 -28.904
O 40.280 14.806 -23.674
O 79.431 8.051 -14.079
O 86.077 4.609 -17.056
O 32.758 10.333 -26.446
O 60.433 13.482 -27.510
O 41.577 28.407 -12.981
O 237.426 15.122 -30.330
O 45.471 18.654 -27.260
O 221.791 15.988 -3.054
O 51.748 18.672 -4.775
O 238.812 29.561 -19.739
O 44.255 14.277 -28.862
O 229.833 1.160 -22.663
O 81.337 8.079 -4.408
O 237.132 15.327 -1.731
O 56.832 6.904 -1.222
O 75.552 25.249 -14.454
O 78.877 10.707 -16.766
O 39.542 4.940 -0.288
O 59.460 18.454 -22.306
O 43.004 11.604 -26.983
O 239.196 6.719 -2.774
O 234.042 28.989 -1.223
O 81.597 5.190 -25.843
O 43.824 29.852 -11.771
O 244.523 30.238 -14.484
O 232.928 7.224 -25.095
O 39.762 4.008 -4.956
O 64.162 5.456 -12.481
O 65.692 20.712 -30.904
O 45.921 8.016 -4.944
O 232.593 20.912 -3.454
O 59.767 29.104 -22.293
O 59.664 28.096 -25.834
O 47.057 9.072 -7.139
O 85.857 0.677 -20.494
O 82.631 30.708 -14.386
O 74.315 13.974 -0.978
O 248.089 20.412 -5.743
O 88.709 9.266 -18.948
O 40.575 16.977 -12.232
O 236.506 17.732 -18.909
O 224.842 4.096 -29.939
O 235.434 12.971 -27.244
O 61.578 12.995 -10.813
O 241.096 22.682 -1.226
O 76.657 22.477 -6.168
O 66.005 24.559 -9.174
O 46.125 2.799 -3.384
O 77.416 5.522 -10.058
O 222.505 9.880 -12.716
O 221.483 12.766 -28.843
O 80.245 0.794 -0.375
O 67.372 7.466 -27.899
O 83.430 12.325 -29.639
O 236.373 13.106 -7.102
O 49.085 30.097 -30.738
O 87.035 24.888 -16.490
O 55.116 10.741 -6.362
O 53.683 5.759 -29.973
O 252.949 26.164 -2.788
O 246.229 17.940 -13.575
O 237.970 10.416 -1.648
O 35.884 14.841 -21.514
O 35.825 3.424 -28.112
O 226.949 6.271 -31.021
O 70.352 6.235 -21.204
O 85.509 13.543 -17.149
O 249.427 17.090 -17.420
O 253.108 16.836 -0.471
O 65.203 14.008 -13.256
O 232.117 30.538 -20.814
O 227.082 12.430 -25.769
O 74.726 5.950 -22.317
O 41.316 28.102 -10.218
O 53.708 26.570 -14.739
O 90.895 11.193 -15.037
O 73.894 6.491 -17.708
O 63.096 16.783 -22.419
O 55.224 31.182 -28.585
O 46.619 30.794 -8.020
O 85.752 26.089 -19.192
O 63.365 10.630 -29.917
O 72.793 7.427 -1.323
O 55.016 10.577 -22.323
O 84.960 29.409 -19.458
O 228.162 22.071 -8.614
O 38.926 30.425 -18.816
O 252.639 22.109 -20.307
O 239.336 5.138 -21.238
O 54.507 26.071 -28.522
O 249.584 10.942 -21.922
O 67.266 25.217 -27.257
O 29.374 16.396 -11.510
O 44.371 2.001 -18.359
O 229.281 5.379 -2.264
O 234.723 30.381 -17.063
O 30.886 6.972 -23.772
O 228.978 5.274 -10.334
O 48.943 26.416 -6.281
O 245.292 26.786 -2.187
O 49.980 13.821 -1.314
O 239.026 15.537 -16.100
O 42.872 1.652 -31.234
O 237.459 2.602 -17.165
O 234.573 2.053 -18.302
O 72.588 20.904 -4.159
O 82.953 29.453 -9.527
O 86.028 6.081 -6.696
O 86.915 20.983 -30.614
O 229.381 30.210 -26.981
O 75.876 29.192 -13.763
O 76.593 17.721 -18.014
O 41.720 4.738 -27.867
O 44.370 24.861 -11.345
O 240.979 15.778 -22.453
O 248.030 1.187 -16.410
O 29.587 22.501 -11.735
O 54.276 27.044 -23.138
O 55.895 2.090 -30.057
O 226.588 23.521 -10.427
O 78.822 24.154 -23.405
O 222.529 9.665 -4.730
O 33.715 17.172 -21.197
O 81.647 11.003 -7.186
O 242.902 11.957 -8.621
O 243.738 14.463 -19.221
O 220.597 13.302 -31.370
O 81.877 26.752 -29.261
O 86.335 4.069 -4.645
O 89.489 0.036 -25.841
O 54.087 2.508 -14.289
O 86.987 11.514 -15.592
O 83.597 30.763 -11.792
O 243.551 2.374 -23.485
O 245.893 6.722 -16.331
O 238.380 28.473 -12.547
O 252.113 25.458 -14.131
O 65.520 27.908 -17.211
O 46.754 28.905 -22.706
O 245.508 5.163 -7.090
O 67.520 30.857 -31.226
O 55.140 4.811 -25.342
O 232.021 19.665 -30.436
O 46.495 12.647 -28.669
O 76.014 20.054 -8.751
O 72.696 5.543 -3.825
O 90.052 25.174 -24.562
O 34.661 10.709 -29.461
O 75.545 5.722 -7.966
O 56.478 4.118 -2.901
O 245.308 29.474 -9.170
O 63.798 12.917 -20.123
O 38.364 8.675 -20.293
O 42.953 12.125 -17.305
O 245.944 1.901 -11.779
O 70.989 10.330 -10.266
O 50.870 1.884 -0.493
O 231.252 21.013 -5.875
O 34.609 2.478 -19.138
O 236.706 0.172 -0.824
O 82.483 29.133 -4.829
O 45.201 27.205 -4.176
O 237.153 25.832 -1.424
O 229.520 7.764 -29.797
O 72.693 20.165 -0.250
O 89.293 20.375 -28.462
O 226.954 15.875 -29.695
O 58.237 17.926 -4.444
O 229.873 7.774 -15.216
O 242.414 26.894 -4.251
O 246.545 22.180 -0.537
O 39.037 25.179 -4.946
O 49.011 16.157 -17.258
O 80.728 25.184 -10.505
O 85.152 19.190 -0.058
O 50.101 4.820 -2.339
O 58.821 6.532 -24.362
O 76.752 18.398 -24.345
O 61.117 23.596 -0.956
O 33.204 4.306 -14.370
O 62.065 6.351 -15.521
O 60.763 28.022 -17.621
O 79.782 5.839 -16.484
O 56.480 29.899 -4.846
O 36.357 5.281 -6.982
O 48.101 23.110 -23.437
O 248.395 12.146 -17.785
O 86.204 15.914 -21.049
O 50.525 24.496 -25.080
O 69.172 16.369 -30.774
O 76.585 11.730 -18.096
O 77.136 31.349 -8.296
O 229.300 16.038 -2.153
O 238.448 11.548 -8.367
O 34.755 28.664 -8.894
O 83.041 11.633 -0.679
O 29.796 29.904 -13.906
O 70.688 6.862 -16.446
O 238.148 8.914 -3.784
O 37.196 26.941 -11.992
O 88.296 0.892 -10.105
O 45.651 16.369 -16.417
O 88.716 13.719 -8.404
O 247.353 19.054 -16.570
O 47.231 5.217 -20.848
O 47.794 15.185 -9.932
O 72.646 6.699 -12.959
O 72.377 6.564 -25.410
O 50.572 7.137 -18.917
O 235.462 8.014 -3.688
O 235.531 26.031 -9.111
O 33.544 8.439 -28.391
O 253.054 29.135 -0.748
O 70.691 19.423 -23.300
O 65.770 10.012 -11.359
O 80.073 14.249 -18.168
O 227.289 21.248 -25.278
O 229.218 19.865 -11.766
O 248.724 14.172 -7.110
O 73.463 18.702 -23.224
O 40.307 5.259 -13.711
O 74.724 19.592 -25.970
O 233.027 7.780 -7.422
O 82.131 1.940 -26.248
O 87.517 25.651 -5.816
O 73.648 6.757 -27.735
O 229.213 10.367 -15.329
O 230.771 12.418 -16.670
O 80.557 18.267 -5.432
O 54.017 5.035 -2.858
O 34.442 12.062 -14.455
O 225.152 22.014 -20.283
O 39.862 0.001 -8.920
O 244.000 20.450 -18.619
O 66.887 7.432 -10.538
O 230.352 11.535 -0.578
O 70.945 2.141 -9.205
O 32.752 18.184 -29.253
O 37.696 27.985 -27.507
O 246.608 21.321 -22.763
O 232.043 23.783 -25.414
O 52.579 30.568 -12.316
O 43.682 2.078 -7.422
O 66.355 6.945 -14.052
O 48.237 0.940 -0.937
O 35.007 2.254 -23.396
O 234.575 27.815 -18.190
O 58.206 16.337 -7.114
O 29.698 5.266 -5.149
O 240.163 0.410 -20.390
O 62.203 6.188 -19.016
O 38.060 8.759 -9.763
O 250.238 22.969 -23.721
O 229.901 8.965 -18.618
O 52.157 6.394 -21.115
O 69.962 16.641 -2.464
O 62.643 7.900 -10.002
O 68.018 2.333 -7.908
O 64.445 3.770 -2.584
O 222.605 13.672 -1.660
O 73.498 28.912 -6.268
O 240.220 22.450 -26.478
O 55.916 13.593 -18.290
O 79.426 16.374 -10.238
O 32.849 24.006 -17.314
O 224.286 30.335 -19.963
O 76.733 2.792 -24.242
O 244.263 6.837 -1.956
O 246.032 23.395 -12.121
O 70.138 5.445 -13.787
O 61.629 6.561 -12.162
O 89.878 13.370 -24.320
O 79.005 31.259 -24.229
O 230.387 31.054 -4.247
O 74.244 13.949 -24.171
O 241.906 5.825 -22.308
O 82.650 19.630 -11.760
O 87.016 2.925 -8.956
O 229.125 3.165 -4.034
O 72.294 25.228 -21.562
O 59.114 25.060 -30.781
O 72.674 10.958 -25.865
O 39.410 13.521 -0.968
O 75.252 26.767 -23.533
O 85.747 12.015 -1.650
O 233.512 1.552 -15.574
O 228.936 3.053 -29.382
O 245.020 16.568 -19.927
O 231.295 4.378 -8.828
O 247.118 12.009 -29.907
O 78.612 11.124 -24.279
O 232.727 10.479 -16.019
O 59.597 20.618 -6.725
O 48.140 8.387 -29.618
O 60.767 17.310 -5.693
O 229.074 30.592 -24.315
O 249.366 10.944 -26.622
O 59.810 3.283 -12.360
O 54.400 20.195 -26.010
O 248.006 31.047 -22.965
O 248.413 22.575 -13.219
O 227.899 15.904 -16.425
O 82.995 29.424 -0.566
O 70.007 28.477 -13.947
O 241.154 4.401 -29.963
O 48.616 16.657 -3.071
O 84.308 28.992 -22.087
O 85.379 28.299 -13.772
O 226.138 26.799 -6.503
O 229.622 24.462 -14.441
O 229.344 18.598 -20.196
O 59.490 12.907 -4.138
O 88.723 12.591 -27.987
O 74.249 10.762 -19.459
O 239.643 25.381 -6.129
O 50.920 0.705 -23.382
O 224.754 6.889 -18.686
O 78.974 30.622 -19.170
O 240.284 9.665 -5.146
O 75.628 5.561 -3.733
O 241.626 23.303 -15.367
O 225.335 7.585 -29.018
O 238.981 2.828 -14.893
O 244.814 6.797 -30.522
O 29.893 11.350 -21.903
O 51.258 6.405 -11.494
O 40.129 24.209 -17.399
O 235.493 7.906 -25.622
O 229.209 19.027 -23.949
O 239.854 12.030 -14.427
O 253.111 27.314 -27.016
O 243.945 7.673 -7.844
O 246.251 6.033 -22.055
O 85.943 14.553 -27.144
O 46.928 30.592 -2.589
O 244.253 28.268 -24.379
O 50.871 29.740 -6.129
O 78.834 9.946 -26.578
O 44.055 21.794 -18.155
O 78.978 9.444 -5.067
O 241.896 6.619 -28.366
O 233.524 1.994 -7.777
O 86.385 25.670 -13.976
O 243.778 8.858 -28.848
O 245.933 24.627 -9.206
O 224.260 13.845 -12.701
O 59.402 24.954 -4.353
O 56.572 6.771 -16.388
O 82.654 5.943 -23.380
O 44.261 4.784 -18.946
O 48.905 5.966 -25.045
O 83.758 24.267 -14.436
O 56.700 6.632 -19.210
O 250.096 25.756 -16.144
O 229.208 7.598 -12.373
O 61.478 11.425 -21.180
O 55.879 22.542 -17.993
O 75.194 16.700 -15.947
O 252.514 28.790 -7.151
O 78.822 14.606 -6.095
O 73.642 9.659 -27.927
O 239.955 15.688 -24.983
O 223.728 7.137 -23.364
O 32.996 17.371 -26.378
O 242.965 30.979 -29.678
O 69.721 23.327 -16.332
O 225.155 4.323 -19.226
O 52.800 8.429 -14.084
O 49.300 15.153 -28.204
O 62.147 2.322 -0.207
O 244.486 13.191 -29.478
O 223.785 21.780 -12.454
O 89.604 29.198 -29.424
O 62.958 24.586 -26.073
O 81.112 28.113 -24.863
O 53.480 10.595 -29.663
O 228.404 28.979 -16.431
O 232.713 18.222 -13.962
O 247.848 24.482 -24.847
O 84.380 30.187 -29.672
O 83.607 15.978 -28.213
O 66.896 5.263 -23.647
O 74.814 18.882 -2.199
O 49.840 29.714 -16.693
O 65.952 16.640 -30.387
O 55.740 25.867 -0.756
O 251.405 15.420 -12.768
O 74.869 14.885 -11.694
O 35.933 8.246 -7.734
O 64.769 15.508 -1.240
O 250.684 20.802 -25.430
O 74.495 12.546 -15.051
O 62.018 18.524 -7.827
O 63.413 13.689 -6.016
O 251.294 13.433 -6.233
O 88.458 4.667 -6.928
O 65.144 11.637 -17.431
O 67.318 11.432 -31.000
O 239.544 26.979 -3.976
O 85.704 11.147 -4.117
O 33.697 21.905 -21.319
O 30.852 13.617 -17.928
O 232.038 4.532 -12.844
O 76.280 10.519 -27.668
O 48.725 2.604 -4.066
O 236.621 5.924 -15.117
O 65.930 6.686 -21.109
O 73.984 22.044 -29.898
O 61.511 23.291 -3.728
O 244.226 10.869 -30.943
O 46.809 27.432 -27.698
O 46.527 11.701 -6.902
O 47.525 1.747 -22.355
O 233.462 27.582 -6.277
O 32.953 12.353 -4.907
O 64.138 4.481 -9.846
O 240.346 6.496 -8.752
O 41.289 27.150 -20.955
O 91.483 11.873 -2.721
O 247.442 7.350 -19.059
O 68.722 19.673 -14.741
O 61.826 25.832 -8.093
O 38.519 5.565 -20.019
O 231.514 14.410 -18.435
O 248.601 4.269 -1.639
O 231.218 15.116 -9.377
O 82.723 28.981 -27.284
O 69.047 19.273 -31.057
O 73.006 11.920 -9.699
O 36.799 13.997 -6.178
O 248.845 22.137 -18.212
O 239.168 4.312 -26.140
O 249.473 25.448 -18.962
O 236.904 26.223 -12.792
O 32.603 25.858 -0.633
O 69.998 15.888 -25.552
O 76.178 6.887 -18.949
O 82.677 9.085 -31.307
O 41.520 9.765 -4.157
O 233.254 4.418 -20.351
O 49.637 28.564 -9.412
O 86.520 1.196 -5.381
O 46.120 4.519 -5.867
O 65.660 26.669 -22.317
O 234.581 12.277 -23.725
O 85.369 18.896 -11.974
O 68.390 8.846 -12.617
O 85.480 18.914 -17.143
O 43.811 30.418 -30.358
O 44.387 24.997 -0.282
O 37.352 9.321 -5.595
O 237.931 5.987 -17.427
O 245.934 2.157 -24.919
O 240.285 0.459 -16.523
O 73.028 9.583 -12.378
O 35.912 22.385 -11.019
O 246.590 17.216 -10.419
O 81.474 28.376 -15.662
O 52.298 27.443 -27.881
O 83.833 22.914 -0.724
O 225.101 19.847 -3.177
O 236.843 13.362 -24.885
O 42.240 1.838 -16.802
O 61.248 16.986 -12.874
O 71.721 3.482 -25.848
O 236.181 19.990 -2.302
O 241.748 2.861 -25.922
O 52.396 10.605 -20.817
O 228.536 21.596 -17.819
O 89.138 11.409 -17.571
O 227.288 17.557 -14.435
O 240.684 5.496 -18.130
O 222.137 6.151 -30.847
O 70.133 21.784 -22.398
O 238.298 17.819 -21.102
O 32.886 19.609 -24.458
O 91.868 18.947 -16.818
O 62.209 0.331 -7.306
O 234.242 0.326 -1.651
O 246.048 10.531 -22.852
O 38.187 20.599 -26.157
O 60.139 11.659 -0.741
O 249.714 14.021 -23.210
O 235.007 5.177 -2.638
O 83.106 26.328 -23.940
O 229.870 1.909 -10.359
O 222.902 30.639 -0.793
O 38.865 24.315 -20.954
O 42.925 19.458 -13.959
O 242.460 7.148 -19.650
O 229.383 24.118 -25.348
O 42.439 15.624 -10.292
O 44.166 22.838 -2.003
O 39.426 16.854 -22.172
O 85.297 17.968 -28.979
O 77.314 26.133 -2.471
O 71.805 18.366 -7.843
O 63.109 1.095 -9.968
O 248.667 30.991 -30.776
O 72.506 19.483 -12.113
O 30.515 9.044 -8.981
O 31.391 12.272 -1.014
O 89.477 26.549 -0.899
O 245.650 9.441 -14.708
O 239.920 8.172 -24.478
O 241.197 2.494 -11.253
O 42.902 3.711 -21.862
O 90.976 16.956 -28.358
O 38.329 15.792 -9.732
O 91.112 22.666 -20.793
O 228.731 5.750 -5.948
O 240.866 2.360 -8.556
O 238.260 25.580 -10.267
O 249.548 22.529 -9.707
O 71.168 24.485 -29.587
O 76.570 29.304 -3.599
O 67.349 19.260 -4.635
O 232.772 6.436 -10.720
O 41.264 28.980 -18.737
O 244.649 17.514 -7.887
O 238.360 6.682 -12.276
O 62.864 18.827 -4.791
O 74.040 12.510 -22.027
O 239.738 20.376 -8.528
O 81.084 30.613 -29.069
O 45.597 20.176 -1.517
O 248.303 28.204 -16.461
O 237.014 15.803 -14.010
O 248.889 16.186 -21.692
O 29.523 9.859 -3.899
O 63.973 22.550 -8.593
O 79.619 12.525 -30.678
O 46.592 12.236 -1.262
O 88.674 27.755 -18.743
O 226.873 1.194 -10.265
O 73.950 9.934 -23.117
O 61.182 20.342 -9.825
O 51.808 27.184 -6.271
O 237.012 5.434 -0.916
O 32.363 14.489 -29.138
O 237.478 17.213 -5.791
O 30.656 30.889 -28.141
O 29.478 20.912 -5.132
O 50.325 24.597 -16.785
O 251.665 11.985 -11.733
O 244.752 10.661 -20.410
O 242.200 27.604 -26.453
O 83.937 15.479 -10.052
O 230.036 25.407 -21.000
O 219.095 10.351 -30.735
O 71.260 7.556 -10.651
O 90.973 10.571 -25.293
O 226.438 2.690 -5.232
O 224.899 3.061 -14.798
O 64.661 23.512 -20.241
O 230.641 22.147 -13.277
O 67.513 23.826 -6.832
O 249.197 15.384 -27.785
O 44.368 31.331 -2.332
O 32.040 27.176 -4.865
O 233.667 13.972 -0.245
O 219.285 8.566 -24.522
O 50.585 19.159 -27.947
O 83.597 4.495 -18.393
O 250.467 18.538 -9.148
O 30.265 25.096 -15.230
O 229.511 28.184 -7.851
O 39.308 16.754 -19.110
O 228.178 0.228 -5.848
O 34.444 0.098 -15.530
O 42.384 8.264 -10.371
O 227.612 15.026 -25.220
O 52.178 8.915 -25.355
O 247.347 8.096 -23.725
O 224.826 1.542 -18.718
O 67.570 6.726 -18.682
O 226.290 5.358 -9.807
O 219.955 8.345 -20.752
O 246.251 7.068 -10.778
O 247.599 26.998 -31.005
O 230.439 6.731 -23.945
O 79.416 3.686 -2.201
O 253.474 30.466 -3.212
O 75.908 7.903 -29.447
O 227.222 2.202 -22.105
O 39.372 20.603 -6.194
O 50.967 20.299 -16.697
O 84.444 12.294 -21.076
O 31.029 20.880 -27.062
O 248.045 1.106 -13.809
O 237.092 27.942 -5.339
O 75.916 30.671 -24.357
O 42.143 28.601 -28.479
O 249.102 16.896 -10.855
O 89.267 7.712 -29.125
O 237.163 22.854 -18.976
O 51.474 14.054 -12.197
O 237.759 25.695 -15.344
O 240.344 9.119 -28.003
O 72.931 27.211 -2.847
O 58.090 30.546 -26.214
O 59.447 21.290 -0.777
O 72.625 24.634 -26.008
O 81.802 4.450 -9.479
O 71.032 22.467 -19.591
O 77.995 13.231 -20.288
O 29.319 12.562 -7.531
O 55.270 2.827 -17.340
O 86.322 19.333 -14.535
O 93.326 20.379 -26.585
O 32.001 1.304 -30.069
O 33.176 24.729 -21.641
O 239.663 0.448 -29.662
O 70.179 27.409 -18.229
O 49.429 15.401 -5.373
O 69.356 24.705 -18.589
O 47.015 25.711 -18.153
O 227.417 26.441 -15.992
O 35.983 25.417 -10.112
O 56.697 0.915 -14.069
O 232.033 16.688 -28.942
O 247.356 16.400 -0.793
O 236.076 21.183 -10.326
O 77.085 15.200 -14.521
O 65.640 0.069 -9.781
O 246.310 15.446 -22.224
O 38.387 17.706 -14.039
O 69.900 6.331 -1.984
O 247.262 24.298 -3.095
O 65.271 15.092 -28.227
O 78.797 18.004 -12.159
O 242.136 10.008 -20.630
O 220.203 10.329 -22.490
O 59.571 1.679 -25.365
O 65.634 4.170 -0.106
O 67.914 10.002 -19.010
O 73.538 24.021 -8.484
O 88.115 30.873 -23.318
O 234.206 22.277 -28.731
O 83.276 0.590 -1.661
O 227.228 9.625 -18.223
O 36.805 5.911 -13.657
O 237.029 1.783 -29.997
O 47.192 14.167 -30.874
O 231.914 18.591 -16.883
O 79.028 3.211 -16.510
O 90.317 8.559 -3.881
O 75.184 1.737 -16.218
O 40.245 13.680 -5.115
O 245.440 4.452 -1.002
O 32.172 16.871 -9.618
O 241.882 17.101 -12.817
O 77.677 27.049 -14.934
O 229.434 22.686 -2.014
O 37.033 0.762 -22.552
O 29.421 15.705 -3.148
O 53.029 1.307 -10.714
O 87.775 20.843 -11.488
O 86.482 27.382 -2.321
O 36.339 11.433 -0.183
O 35.904 31.194 -5.802
O 55.252 12.971 -26.481
O 79.266 16.785 -22.012
O 238.062 2.081 -12.544
O 67.965 18.655 -22.819
O 54.484 29.088 -7.745
O 86.498 21.955 -13.604
O 44.056 28.453 -7.204
O 68.642 4.916 -4.006
O 87.311 0.295 -2.930
O 64.468 28.140 -12.406
O 41.261 6.799 -21.248
O 64.919 19.823 -7.738
O 233.049 15.736 -12.578
O 86.758 5.282 -21.216
O 59.013 25.888 -21.534
O 221.562 4.309 -17.558
O 63.364 1.595 -18.182
O 74.091 3.648 -10.397
O 29.250 5.774 -26.230
O 94.016 24.885 -21.700
O 232.643 10.615 -7.814
O 32.541 23.822 -27.966
O 230.086 9.457 -7.426
O 250.840 3.400 -10.039
O 64.733 5.271 -18.106
O 89.730 25.927 -16.925
O 49.456 28.144 -22.300
O 232.422 3.872 -6.186
O 49.687 31.283 -10.544
O 243.042 12.591 -27.030
O 46.797 16.415 -27.604
O 42.686 8.848 -20.015
O 32.093 29.459 -9.375
O 73.390 9.588 -8.190
O 52.487 25.994 -21.192
O 64.566 30.447 -29.253
O 63.878 11.124 -4.582
O 230.044 7.504 -21.112
O 83.253 16.874 -23.255
O 234.755 11.202 -5.958
O 223.182 11.512 -10.682
O 73.005 7.692 -21.203
O 66.174 29.750 -7.750
O 83.272 25.707 -4.696
O 76.177 17.562 -12.826
O 232.014 19.576 -25.986
O 89.323 15.000 -13.311
O 253.338 22.830 -16.050
O 247.874 6.817 -8.613
O 34.614 20.401 -7.359
O 75.728 3.096 -4.817
O 60.823 9.628 -30.324
O 51.639 11.533 -10.669
O 67.240 26.091 -4.727
O 222.173 7.562 -8.993
O 231.037 7.151 -5.508
O 31.330 20.960 -9.396
O 60.808 24.709 -28.026
O 44.748 1.318 -22.279
O 49.848 9.081 -13.743
O 56.819 2.127 -1.241
O 238.441 27.473 -21.391
O 32.143 5.359 -10.791
O 247.327 20.025 -19.153
O 38.410 7.824 -12.499
O 232.519 8.245 -17.444
O 251.054 30.364 -25.752
O 238.437 13.120 -2.869
O 68.184 2.765 -2.250
O 83.562 4.411 -13.274
O 83.454 26.816 -15.855
O 43.562 18.410 -1.398
O 221.851 20.948 -16.669
O 90.071 16.600 -24.473
O 240.426 23.909 -19.035
O 223.696 11.397 -2.527
O 39.972 18.203 -2.972
O 71.534 4.644 -9.312
O 33.336 8.320 -7.595
O 87.504 5.083 -11.576
O 249.439 4.071 -5.627
O 39.791 13.168 -26.458
O 236.703 30.601 -23.458
O 251.727 25.970 -0.279
O 239.407 18.782 -27.777
O 57.463 14.610 -4.780
O 85.338 25.469 -9.148
O 240.067 25.159 -16.663
O 29.560 11.899 -25.323
O 241.107 15.048 -5.537
O 60.591 1.350 -20.258
O 59.349 15.423 -25.899
O 62.404 12.039 -2.203
O 251.958 19.413 -22.576
O 46.033 16.173 -13.058
O 49.442 8.604 -27.165
O 52.985 9.182 -5.430
O 78.066 22.129 -8.376
O 41.521 30.842 -26.755
O 47.525 6.127 -4.149
O 51.421 17.820 -20.360
O 242.239 22.852 -24.682
O 251.787 6.733 -11.468
O 82.361 15.949 -18.165
O 225.867 13.048 -16.826
O 242.718 24.735 -26.715
O 240.903 27.544 -12.520
O 224.376 6.152 -7.766
O 226.936 29.452 -7.544
O 226.599 24.504 -18.726
O 79.225 2.902 -26.741
O 53.074 14.427 -0.533
O 80.431 29.450 -2.962
O 75.175 24.334 -31.161
O 73.564 17.607 -27.574
O 237.612 0.111 -3.391
O 240.559 24.842 -23.507
O 64.064 23.337 -15.745
O 247.727 14.582 -13.751
O 50.991 22.173 -23.074
O 83.622 27.134 -2.392
O 79.532 6.867 -9.255
O 69.808 22.535 -31.160
O 78.464 8.150 -17.428
O 77.028 18.585 -28.260
O 222.699 9.933 -26.150
O 32.514 16.484 -12.326
O 72.407 28.093 -21.645
O 244.971 26.244 -26.684
O 61.046 19.567 -25.212
O 232.253 4.639 -28.028
O 226.639 29.984 -14.558
O 249.090 29.807 -13.088
O 61.063 1.363 -16.617
O 57.465 25.163 -14.442
O 63.092 6.723 -26.974
O 90.949 22.580 -24.621
O 250.125 5.687 -13.260
O 52.715 19.443 -18.375
O 238.128 19.384 -14.942
O 63.818 20.615 -19.392
O 37.679 19.998 -21.021
O 71.971 27.765 -16.054
O 43.369 31.405 -14.269
O 249.325 13.158 -3.991
O 242.323 28.164 -10.057
O 229.554 14.877 -22.508
O 233.153 28.410 -13.416
O 42.660 6.144 -25.581
O 56.158 29.074 -30.020
O 243.372 22.925 -22.031
O 244.168 19.256 -11.201
O 42.933 29.001 -2.328
O 70.601 27.187 -0.198
O 43.437 3.807 -12.330
O 89.552 26.789 -21.152
O 242.604 22.174 -8.183
O 232.671 0.953 -5.115
O 247.651 16.401 -3.801
O 228.961 21.547 -4.443
O 67.441 18.254 -27.788
O 40.111 8.491 -6.272
O 45.806 25.456 -29.354
O 228.223 5.515 -28.723
O 68.980 9.070 -16.559
O 44.139 8.143 -29.046
O 66.453 19.473 -1.823
O 35.108 6.118 -27.469
O 243.784 18.759 -4.655
O 80.910 0.213 -9.839
O 56.693 29.384 -11.485
O 244.877 12.875 -6.919
O 242.942 17.514 -23.507
O 76.895 27.789 -17.339
O 45.852 28.306 -10.570
O 46.630 1.182 -12.730
O 33.632 7.901 -15.836
O 48.474 2.586 -17.223
O 226.151 0.296 -4.011
O 84.305 16.136 -7.266
O 58.891 6.020 -11.621
O 36.592 13.573 -13.340
O 38.689 11.604 -30.224
O 69.120 14.367 -15.489
O 77.953 8.002 -2.016
O 89.910 23.140 -2.485
O 234.612 14.795 -2.588
O 227.170 12.931 -5.946
O 80.648 20.838 -8.551
O 90.516 15.290 -9.902
O 87.560 9.739 -0.375
O 252.772 8.688 -20.194
O 45.786 30.583 -25.937
O 243.198 8.173 -23.646
O 243.503 3.937 -20.947
O 52.284 18.738 -24.429
O 86.709 15.729 -9.308
O 78.943 28.939 -9.271
O 41.704 3.529 -1.501
O 222.499 11.135 -23.584
O 248.130 28.508 -2.063
O 51.055 3.091 -18.424
O 29.531 9.336 -24.103
O 240.175 25.869 -30.438
O 56.461 25.998 -7.539
O 242.897 9.997 -26.059
O 66.558 9.087 -22.364
O 42.478 19.573 -18.663
O 77.393 27.024 -7.730
O 224.380 10.404 -21.381
O 50.986 25.742 -14.310
O 74.344 16.280 -25.247
O 238.182 0.773 -9.969
O 228.042 6.305 -19.037
O 30.205 17.867 -29.823
O 50.737 12.268 -26.190
O 79.146 7.845 -19.996
O 40.728 1.526 -6.970
O 51.095 8.060 -1.602
O 35.382 6.996 -2.997
O 57.870 25.344 -18.770
O 248.550 1.391 -25.033
O 246.554 20.735 -10.553
O 251.075 0.057 -3.980
O 54.357 13.785 -12.481
O 54.177 21.299 -19.599
O 245.528 0.416 -21.922
O 82.670 20.739 -26.762
O 73.580 29.854 -26.916
O 75.132 12.062 -4.701
O 232.235 29.938 -26.960
O 73.516 19.031 -16.020
O 92.016 19.975 -29.107
O 72.410 11.476 -17.247
O 37.271 4.381 -15.979
O 34.829 4.775 -22.178
O 231.540 28.827 -0.545
O 34.621 0.935 -29.048
O 35.079 2.614 -13.605
O 225.148 24.795 -28.577
O 65.505 3.481 -28.189
O 76.267 17.156 -21.855
O 36.932 30.165 -20.678
O 85.629 3.188 -25.111
O 249.513 26.550 -23.909
O 43.511 30.894 -24.674
O 62.358 8.035 -2.877
O 52.593 13.292 -2.998
O 74.400 9.660 -5.487
O 225.910 10.299 -29.806
O 62.130 17.565 -29.803
O 243.464 5.069 -26.707
O 48.185 13.372 -16.599
O 53.691 7.287 -7.264
O 42.700 25.093 -16.790
O 247.123 13.009 -23.744
O 230.058 1.413 -19.592
O 234.436 25.431 -20.403
O 230.265 25.489 -7.265
O 55.861 23.810 -25.485
O 86.800 9.297 -23.091
O 239.149 22.526 -30.808
O 45.648 27.955 -25.213
O 75.766 20.967 -28.104
O 247.813 13.085 -27.247
O 77.111 7.908 -11.663
O 240.362 13.622 -10.024
O 227.749 20.815 -20.460
O 88.744 8.892 -25.108
O 69.709 29.598 -1.433
O 60.112 19.424 -30.142
O 55.490 16.061 -11.327
O 227.617 13.481 -14.623
O 238.446 22.688 -10.978
O 84.819 22.310 -16.481
O 34.957 19.735 -21.891
O 89.371 9.984 -21.905
O 44.670 10.038 -24.353
O 38.438 10.334 -13.898
O 47.507 7.183 -18.370
O 68.213 29.319 -18.380
O 43.985 8.453 -26.443
O 243.124 29.265 -3.222
O 47.421 30.154 -11.701
O 68.236 26.376 -24.711
O 225.899 23.491 -13.121
O 237.787 28.387 -17.463
O 58.840 29.017 -1.411
O 225.938 5.373 -4.938
O 48.381 17.442 -22.400
O 223.034 5.169 -15.627
O 240.889 10.277 -7.998
O 70.948 18.085 -14.997
O 50.155 22.457 -18.851
O 49.958 30.675 -27.960
O 38.172 6.137 -9.133
O 35.399 14.432 -0.542
O 75.777 8.793 -21.030
O 81.656 10.107 -14.654
O 43.734 1.205 -11.449
O 51.455 23.754 -12.412
O 244.483 28.491 -11.635
O 235.281 9.230 -1.313
O 66.695 13.109 -15.432
O 32.169 8.126 -11.055
O 58.802 23.351 -17.043
O 37.254 16.450 -11.990
O 252.053 11.197 -18.908
O 84.639 13.111 -25.124
O 41.430 30.525 -15.842
O 79.333 14.098 -13.127
O 31.277 5.957 -0.207
O 227.751 26.401 -24.991
O 55.627 2.216 -11.649
O 71.924 8.493 -4.027
O 228.016 17.266 -22.130
O 224.198 7.595 -1.091
O 230.422 28.369 -21.356
O 70.312 18.388 -17.855
O 32.819 1.931 -21.931
O 37.768 2.210 -8.867
O 55.685 16.249 -30.611
O 81.568 24.233 -20.192
O 85.014 9.969 -29.605
O 79.783 21.974 -17.375
O 33.947 21.330 -3.266
O 238.821 1.362 -7.292
O 221.494 10.213 -8.411
O 35.951 26.760 -18.257
O 234.539 17.731 -16.881
O 29.499 23.431 -9.026
O 38.292 30.657 -29.118
O 237.029 24.986 -21.401
O 231.101 22.163 -31.202
O 234.921 4.749 -27.437
O 38.549 29.311 -2.800
O 80.162 17.791 -14.570
O 59.321 27.458 -10.461
O 250.263 20.171 -11.437
O 70.231 20.953 -28.808
O 79.099 6.031 -6.132
O 234.056 7.046 -13.372
O 88.844 19.297 -20.728
O 65.899 19.769 -10.238
O 246.157 24.826 -29.711
O 248.279 27.327 -12.831
O 59.209 7.698 -2.567
O 69.320 29.328 -28.661
O 85.163 3.312 -20.292
O 237.674 8.528 -28.517
O 43.537 21.529 -28.997
O 74.970 20.575 -22.062
O 46.783 9.693 -19.522
O 70.782 15.884 -8.996
O 63.328 27.078 -2.284
O 241.667 1.947 -28.488
O 79.906 14.615 -2.816
O 251.567 15.990 -8.294
O 80.943 6.246 -21.288
O 245.511 13.852 -11.931
O 231.741 31.380 -18.093
O 56.804 12.041 -29.023
O 231.293 5.356 -15.320
O 31.655 11.051 -7.162
O 82.794 6.592 -11.856
O 31.642 13.628 -25.513
O 82.192 2.827 -0.456
O 232.145 24.633 -15.433
O 39.282 14.021 -7.878
O 247.255 4.617 -25.507
O 57.436 4.893 -7.865
O 76.037 13.108 -26.283
O 249.801 6.787 -20.620
O 64.795 1.204 -23.238
O 224.092 29.766 -3.499
O 238.696 13.352 -22.914
O 59.067 12.114 -19.902
O 245.769 2.909 -5.634
O 85.965 29.030 -6.685
O 225.577 16.155 -12.435
O 249.403 9.715 -18.462
O 52.606 30.590 -4.158
O 67.960 1.114 -26.053
O 251.046 9.545 -29.832
O 33.026 30.736 -0.193
O 70.623 30.639 -15.561
O 62.478 27.309 -10.371
O 47.486 7.512 -13.441
O 49.778 3.133 -29.866
O 49.670 26.694 -12.162
O 48.603 10.581 -25.426
O 72.316 2.074 -20.129
O 56.846 20.829 -11.476
O 77.539 2.948 -10.976
O 59.456 6.307 -18.914
O 45.408 2.595 -24.885
O 63.484 15.947 -26.109
O 240.742 26.352 -8.650
O 67.523 27.505 -2.361
O 40.791 21.293 -14.053
O 29.837 7.474 -14.632
O 60.430 16.018 -1.096
O 75.146 30.852 -0.884
O 250.638 14.641 -16.128
O 236.858 16.210 -26.119
O 236.031 2.074 -27.347
O 39.692 5.825 -17.526
O 31.782 13.862 -8.041
O 59.000 5.637 -4.332
O 243.293 20.421 -21.349
O 227.539 7.346 -16.640
O 223.970 14.774 -15.275
O 69.261 8.235 -4.889
O 37.749 25.839 -22.934
O 77.793 23.922 -20.796
O 226.217 8.118 -6.683
O 71.071 12.856 -6.025
O 226.614 20.053 -7.470
O 220.083 8.972 -6.449
O 238.251 1.768 -25.701
O 30.279 17.280 -26.209
O 228.948 16.582 -10.130
O 231.309 26.386 -30.996
O 48.698 19.694 -30.269
O 83.538 14.751 -1.681
O 56.768 16.071 -13.810
O 88.603 2.558 -24.854
O 77.417 12.516 -0.733
O 252.670 25.507 -17.269
O 76.913 7.377 -5.512
O 225.326 27.392 -19.006
O 67.268 0.744 -3.897
O 58.771 8.950 -23.457
O 54.076 24.140 -30.764
O 65.692 16.930 -8.301
O 44.772 12.351 -8.917
O 237.322 8.484 -14.877
O 77.945 17.216 -5.548
O 72.063 24.649 -12.449
O 63.297 9.097 -19.498
O 72.835 24.951 -15.202
O 76.223 13.834 -6.332
O 80.213 6.388 -11.989
O 226.728 22.088 -28.088
O 31.601 6.771 -3.720
O 31.566 4.140 -18.855
O 250.593 20.511 -7.308
O 69.014 20.495 -18.772
O 38.347 19.332 -18.184
O 43.347 26.689 -24.110
O 76.475 23.568 -12.416
O 31.287 25.304 -3.012
O 75.484 26.954 -28.483
O 62.603 14.583 -13.315
O 233.978 27.205 -22.400
O 88.079 7.069 -8.120
O 75.218 9.043 -1.543
O 85.438 0.187 -23.174
O 60.420 22.675 -8.413
O 71.844 1.357 -5.595
O 39.268 0.600 -15.046
O 225.231 4.767 -23.054
O 241.752 5.004 -6.933
O 231.583 29.687 -9.038
O 38.823 20.031 -15.482
O 232.679 10.368 -13.344
O 227.150 27.538 -0.962
O 244.335 2.006 -0.375
O 47.946 12.463 -19.143
O 90.452 20.653 -18.792
O 228.141 9.600 -0.813
O 31.875 30.522 -25.433
O 51.906 23.576 -4.917
O 35.163 30.173 -27.599
O 238.276 11.659 -11.939
O 35.654 28.588 -14.628
O 83.657 14.827 -20.566
O 77.059 6.208 -15.478
O 49.198 25.701 -1.823
O 229.321 24.291 -11.638
O 79.336 21.784 -12.656
O 218.965 6.049 -23.283
O 77.385 6.346 -27.514
O 240.911 26.262 -21.240
O 76.475 3.933 -17.255
O 241.075 13.679 -16.217
O 231.679 8.286 -0.044
O 69.153 6.838 -23.797
O 33.783 22.196 -25.522
O 50.089 25.392 -22.365
O 52.167 27.853 -11.730
O 32.367 5.607 -21.353
O 67.522 14.963 -2.354
O 243.749 22.166 -16.509
O 240.076 16.350 -29.674
O 29.471 28.430 -29.458
O 226.636 15.585 -6.923
O 35.937 12.326 -23.209
O 57.672 16.523 -27.919
O 83.931 25.789 -11.462
O 55.879 19.518 -21.114
O 88.656 12.979 -21.804
O 229.170 5.466 -25.989
O 61.384 3.787 -14.869
O 244.603 4.304 -29.281
O 239.806 30.567 -0.588
O 35.130 16.232 -25.097
O 233.455 24.538 -12.786
O 56.279 11.213 -11.777
O 77.048 3.497 -13.977
O 74.801 7.852 -9.781
O 71.623 9.994 -21.353
O 84.429 7.956 -14.270
O 36.960 30.827 -8.567
O 239.513 4.510 -10.587
O 38.206 21.518 -12.768
O 70.915 31.061 -23.367
O 78.652 16.275 -16.638
O 58.686 24.884 -8.981
O 53.718 9.954 -11.749
O 31.321 18.395 -20.350
O 217.985 9.360 -28.457
O 32.963 8.921 -24.160
O 252.902 5.207 -9.616
O 229.812 15.974 -7.148
O 73.399 3.881 -18.421
O 226.784 3.050 -8.126
O 72.796 13.513 -3.968
O 68.207 13.085 -4.227
O 59.191 2.975 -5.046
O 37.676 1.167 -3.789
O 243.760 3.257 -18.343
O 55.273 12.525 -4.170
O 57.654 18.930 -8.064
O 69.236 26.545 -29.101
O 37.125 4.898 -4.212
O 37.128 19.214 -2.621
O 237.191 15.287 -21.545
O 68.319 16.735 -16.520
O 69.754 28.347 -23.525
O 250.937 21.337 -16.066
O 88.269 29.389 -13.194
O 245.506 18.459 -27.101
O 40.944 22.251 -21.024
O 225.542 0.693 -16.073
O 54.215 18.458 -12.328
O 31.364 20.828 -22.041
O 224.875 8.433 -11.453
O 86.414 23.494 -11.416
O 69.128 24.401 -13.190
O 48.573 6.728 -6.838
O 222.466 10.413 -17.478
O 82.402 23.761 -6.586
O 89.115 29.411 -10.605
O 234.344 11.232 -31.206
O 41.903 12.521 -19.690
O 63.909 29.813 -6.280
O 245.034 25.785 -12.931
O 81.769 31.416 -24.325
O 59.375 13.643 -12.664
O 240.326 29.634 -3.494
O 93.201 19.573 -14.007
O 48.298 29.785 -4.691
O 252.456 5.826 -19.968
O 227.137 4.632 -21.000
O 48.150 22.875 -9.872
O 85.279 16.238 -12.721
O 31.841 29.904 -4.820
O 38.932 2.576 -29.393
O 229.967 18.242 -13.830
O 33.424 0.709 -5.329
O 47.711 22.032 -20.330
O 75.128 10.935 -10.924
O 59.219 27.107 -13.275
O 37.015 30.123 -11.806
O 250.689 8.287 -16.350
O 49.977 14.973 -25.457
O 251.613 30.362 -13.654
O 231.011 13.887 -14.259
O 242.789 17.966 -18.784
O 42.819 7.116 -4.771
O 229.840 14.771 -29.500
O 76.466 19.381 -20.198
O 71.841 26.029 -7.597
O 78.384 4.360 -29.241
O 245.513 18.847 -22.235
O 63.596 0.923 -2.547
O 77.901 11.020 -9.677
O 225.856 23.107 -16.499
O 252.218 8.273 -5.506
O 58.066 29.988 -14.017
O 243.015 12.710 -11.264
O 58.431 12.831 -17.237
O 57.180 20.914 -25.855
O 74.226 28.501 -10.718
O 72.282 15.549 -18.926
O 71.678 8.908 -24.315
O 235.953 22.641 -6.326
O 85.100 15.897 -15.607
O 222.506 21.244 -19.475
O 44.063 8.783 -7.334
O 252.094 6.003 -31.039
O 62.321 18.724 -15.613
O 73.023 14.295 -13.572
O 223.498 16.123 -19.777
O 78.574 0.690 -21.438
O 250.421 0.807 -7.507
O 245.495 2.686 -16.293
O 39.651 23.060 -29.803
O 68.758 9.414 -24.630
O 47.636 1.105 -25.110
O 40.988 11.420 -14.954
O 52.947 7.986 -30.982
O 248.914 16.994 -13.816
O 236.224 18.449 -27.692
O 87.558 24.230 -31.118
O 41.087 13.669 -11.915
O 52.355 4.439 -28.046
O 67.840 14.347 -25.433
O 48.997 1.262 -15.065
O 234.217 16.450 -25.094
O 235.015 30.715 -13.051
O 242.323 0.765 -18.682
O 43.069 9.506 -12.670
O 34.730 4.195 -9.957
O 241.188 0.828 -13.633
O 237.821 28.776 -1.195
O 55.319 17.060 -23.452
O 67.081 26.867 -30.928
O 52.593 19.756 -7.230
O 62.176 9.133 -27.537
O 59.432 2.398 -8.476
O 235.632 3.202 -15.286
O 234.744 20.650 -16.386
O 48.039 17.981 -18.801
O 33.802 19.388 -9.883
O 86.144 30.668 -9.366
O 79.089 4.052 -24.085
O 68.308 21.035 -10.563
O 44.184 28.390 -17.102
O 66.829 30.463 -27.677
O 62.072 28.785 -13.597
O 253.361 2.843 -25.812
O 49.446 10.489 -15.987
O 29.504 4.938 -22.159
O 73.362 28.610 -24.316
O 92.117 17.714 -12.157
O 54.051 12.107 -8.714
O 29.630 13.805 -10.047
O 35.606 23.071 -6.855
O 67.526 2.045 -31.060
O 249.539 25.322 -9.327
O 40.129 21.307 -18.696
O 56.862 28.391 -8.977
O 71.001 11.119 -14.889
O 43.873 30.610 -19.062
O 234.383 14.927 -28.967
O 40.702 27.381 -30.440
O 36.346 27.947 -25.220
O 228.864 12.157 -7.791
O 75.039 1.684 -8.673
O 46.173 22.094 -12.011
O 62.809 5.100 -0.209
O 65.348 30.694 -17.006
O 41.012 9.739 -1.280
O 85.284 6.199 -10.525
O 236.828 4.383 -6.166
O 48.398 6.408 -11.077
O 80.124 27.579 -13.190
O 84.667 30.439 -25.751
O 75.123 16.515 -8.163
O 35.675 18.724 -11.696
O 87.756 2.789 -1.524
O 33.230 18.461 -14.726
O 233.026 27.253 -15.829
O 250.006 18.316 -2.677
O 77.621 28.600 -24.144
O 43.851 22.007 -13.486
O 50.510 9.055 -10.949
O 74.562 25.220 -4.189
O 222.772 23.716 -2.076
O 54.283 27.587 -4.928
O 79.923 15.308 -31.302
O 47.935 27.274 -3.713
O 233.988 19.096 -23.987
O 79.450 9.387 -7.935
O 244.473 30.303 -0.727
O 253.593 1.485 -7.185
O 69.206 4.617 -25.530
O 56.061 28.261 -26.184
O 49.755 15.013 -22.572
O 31.277 22.276 -3.454
O 67.043 29.409 -24.687
O 230.509 4.172 -19.131
O 241.456 19.501 -24.852
O 84.721 9.085 -19.044
O 33.159 9.958 -0.805
O 80.861 16.632 -27.243
O 49.416 10.669 -3.953
O 238.605 30.417 -27.524
O 38.363 24.077 -14.233
O 81.993 13.440 -23.679
O 46.350 18.572 -8.124
O 45.238 29.900 -5.228
O 247.889 11.775 -13.773
O 66.539 30.108 -2.348
O 236.143 5.366 -23.451
O 58.006 5.066 -26.932
O 223.680 9.932 -15.150
O 63.886 19.522 -12.502
O 52.291 4.645 -0.782
O 76.351 0.443 -29.957
O 51.531 15.003 -20.414
O 240.660 17.044 -3.369
O 233.497 27.843 -9.680
O 65.845 4.529 -5.368
O 91.811 30.625 -24.355
O 73.470 11.250 -0.912
O 82.085 6.154 -6.153
O 234.863 11.889 -16.981
O 89.471 27.458 -3.686
O 248.768 16.867 -7.184
O 234.019 31.396 -22.515
O 72.250 21.090 -25.465
O 52.567 17.449 -14.221
O 49.772 26.486 -27.448
O 88.195 13.961 -3.994
O 233.731 19.614 -28.149
O 86.019 5.516 -14.268
O 219.371 9.016 -3.299
O 86.645 5.554 -24.003
O 78.249 23.975 -10.488
O 63.036 5.692 -4.000
O 31.175 7.956 -17.376
O 228.635 1.322 -16.279
O 46.632 24.499 -25.319
O 40.896 0.572 -29.406
O 71.761 17.691 -20.470
O 236.663 9.522 -12.292
O 64.380 10.313 -9.162
O 60.881 15.217 -3.647
O 229.516 22.881 -29.064
O 29.204 20.344 -29.611
O 70.825 2.877 -17.795
O 235.760 6.287 -20.805
O 231.732 26.536 -11.501
O 234.421 20.011 -8.638
O 245.928 27.204 -22.416
O 45.301 6.970 -20.559
O 87.353 16.511 -26.222
O 69.634 18.419 -26.184
O 36.485 5.991 -24.378
O 82.986 26.613 -18.713
O 57.255 27.282 -5.250
O 72.137 10.605 -30.221
O 55.022 19.230 -5.646
O 29.888 26.650 -24.375
O 68.726 22.820 -26.869
O 238.493 12.793 -29.023
O 84.245 2.177 -9.465
O 249.892 9.721 -14.109
O 60.310 3.674 -26.921
O 31.289 28.530 -11.915
O 241.026 13.078 -1.855
O 40.193 0.236 -23.075
O 84.345 15.205 -4.342
O 60.033 30.633 -30.913
O 51.032 10.728 -6.355
O 39.402 25.715 -2.238
O 32.063 21.701 -13.508
O 50.208 21.178 -0.517
O 247.233 15.640 -18.397
O 229.260 1.704 -27.049
O 83.677 0.054 -7.855
O 88.375 21.200 -17.191
O 240.522 21.180 -28.952
O 57.338 23.635 -11.154
O 47.801 10.174 -10.262
O 54.426 15.209 -20.161
O 70.707 1.155 -28.958
O 241.754 9.889 -14.062
O 55.390 24.614 -19.814
O 68.892 14.941 -28.333
O 44.075 24.241 -25.277
O 60.985 18.908 -2.377
O 233.498 19.247 -1.625
O 229.939 9.432 -4.647
O 246.397 22.984 -16.983
O 33.858 16.657 -16.994
O 220.015 6.347 -7.572
O 69.980 5.303 -18.619
O 44.255 13.193 -5.335
O 230.695 10.202 -23.879
O 235.473 12.121 -10.134
O 69.065 8.663 -20.960
O 222.240 14.354 -21.396
O 251.794 25.294 -23.409
O 232.943 23.252 -1.659
O 218.424 6.859 -29.551
O 32.658 3.172 -26.160
O 54.043 16.114 -2.557
O 72.556 13.852 -8.056
O 232.134 14.630 -21.414
O 46.891 2.929 -30.780
O 89.861 18.139 -9.919
O 40.238 16.361 -0.798
O 245.153 20.868 -5.801
O 246.119 30.078 -29.849
O 225.315 9.448 -9.095
O 65.071 8.035 -1.790
O 237.711 15.035 -18.596
O 43.788 16.942 -8.109
O 70.112 11.952 -25.267
O 50.195 19.009 -11.377
O 69.737 12.821 -1.089
O 58.746 10.599 -3.107
O 29.550 1.461 -4.410
O 33.617 30.548 -17.928
O 67.019 23.518 -0.059
O 239.148 29.390 -10.064
O 56.561 12.392 -23.860
O 69.828 3.192 -6.048
O 69.308 1.962 -12.514
O 243.043 16.153 -10.121
O 40.121 5.891 -7.125
O 48.397 7.011 -1.505
O 250.182 19.521 -18.916
O 38.067 18.224 -30.526
O 79.990 20.714 -26.436
O 243.080 28.614 -16.024
O 65.296 17.538 -24.877
O 78.975 20.105 -10.533
O 52.169 2.066 -25.379
O 63.573 4.720 -21.249
O 241.301 12.220 -29.100
O 45.061 19.892 -10.271
O 237.940 30.667 -14.027
O 67.162 16.072 -23.412
O 47.143 18.020 -0.278
O 54.572 13.127 -15.938
O 245.625 28.346 -19.560
O 243.824 15.399 -6.436
O 89.239 6.318 -24.338
O 77.442 25.118 -29.415
O 35.729 18.623 -0.404
O 51.377 29.739 -0.907
O 229.324 19.259 -29.352
O 79.746 9.140 -11.090
O 68.235 12.957 -19.651
O 34.491 20.268 -29.586
O 32.608 20.297 -18.999
O 86.090 13.442 -5.814
O 47.803 23.431 -7.219
O 223.266 6.011 -10.937
O 57.808 2.643 -17.267
O 60.209 27.383 -28.367
O 226.335 15.918 -9.675
O 250.692 9.274 -1.065
O 56.105 11.205 -14.682
O 75.020 0.084 -18.474
O 252.166 6.064 -15.428
O 219.824 7.977 -0.745
O 65.563 10.461 -20.299
O 224.255 21.310 -7.206
O 83.158 3.752 -4.694
O 69.824 26.422 -21.206
O 234.989 13.771 -15.049
O 243.011 6.804 -5.498
O 31.861 27.520 -26.149
O 81.227 22.954 -23.550
O 64.303 20.602 -16.316
O 226.953 13.157 -28.857
O 66.178 14.807 -6.741
O 87.028 11.859 -30.017
O 252.900 1.750 -10.676
O 51.492 13.456 -5.418
O 33.951 17.503 -7.243
O 243.057 10.107 -11.749
O 37.153 12.547 -2.608
O 84.340 19.740 -20.735
O 225.739 19.083 -0.770
O 227.789 30.053 -31.244
O 61.203 24.976 -12.813
O 78.478 24.799 -5.391
O 227.424 0.583 -19.907
O 245.026 15.506 -30.634
O 70.858 14.196 -30.187
O 59.118 0.947 -10.886
O 33.023 2.941 -16.986
O 72.546 0.210 -8.300
O 81.621 19.416 -3.280
O 232.543 0.730 -10.031
O 33.949 27.660 -28.048
O 29.260 0.221 -25.619
O 33.713 5.452 -25.262
O 70.352 19.935 -1.998
O 64.967 21.864 -13.554
O 237.619 10.923 -16.035
O 227.822 19.098 -5.230
O 242.587 24.787 -9.814
O 35.117 19.255 -4.778
O 236.104 26.645 -24.028
O 234.729 28.678 -26.575
O 88.594 24.598 -9.868
O 246.028 25.610 -6.377
O 78.974 24.433 -0.180
O 237.785 0.977 -21.563
O 32.948 25.489 -9.471
O 83.641 3.303 -22.951
O 224.644 7.432 -15.684
O 59.458 0.246 -28.366
O 246.924 11.997 -4.821
O 236.772 20.093 -23.557
O 53.191 31.377 -7.799
O 37.333 14.245 -25.704
O 29.259 3.742 -2.864
O 241.154 6.089 -1.144
O 88.038 19.389 -23.481
O 40.231 27.704 -25.644
O 225.382 20.162 -18.276
O 45.605 1.792 -15.447
O 237.126 5.029 -8.899
O 49.710 19.780 -6.498
O 53.294 1.226 -30.838
O 235.977 23.584 -23.595
O 238.708 14.331 -12.057
O 248.207 9.245 -2.059
O 91.764 27.827 -31.379
O 80.072 19.404 -21.078
O 89.762 15.296 -6.045
O 247.861 13.429 -20.453
O 252.717 16.666 -5.534
O 62.222 8.784 -16.852
O 80.137 26.439 -21.325
O 231.579 13.407 -6.818
O 225.993 26.035 -9.456
O 244.505 19.185 -1.326
O 83.761 6.656 -28.841
O 73.562 3.666 -2.090
O 57.463 26.830 -29.038
O 80.166 6.642 -30.850
O 45.308 15.162 -22.118
O 46.912 20.326 -6.056
O 43.861 22.743 -21.113
O 32.790 14.405 -2.136
O 83.294 9.629 -24.888
O 234.668 15.653 -7.308
O 49.942 5.948 -27.866
O 235.133 22.385 -3.656
O 79.923 2.444 -4.591
O 75.376 25.555 -26.069
O 47.261 19.173 -3.452
O 63.449 9.582 -6.652
O 44.920 13.615 -15.881
O 39.911 23.081 -1.008
O 49.436 13.658 -13.991
O 249.578 31.218 -10.712
O 34.269 10.718 -8.989
O 249.434 4.762 -18.868
O 252.606 29.039 -18.585
O 248.043 9.100 -28.810
O 69.029 22.416 -2.688
O 232.403 21.940 -15.341
O 87.608 24.848 -2.831
O 39.691 11.224 -21.416
O 250.575 27.867 -26.145
O 35.264 0.800 -11.819
O 226.336 30.144 -9.954
O 49.442 20.128 -21.675
O 226.241 1.596 -26.405
O 230.575 21.509 -23.462
O 75.215 25.861 -9.481
O 239.829 7.607 -14.676
O 33.098 27.712 -22.058
O 85.340 14.131 -30.450
O 64.930 2.941 -16.337
O 249.394 18.952 -21.426
O 29.713 19.148 -11.477
O 52.637 18.536 -9.665
O 71.076 21.444 -11.002
O 235.523 0.267 -20.050
O 251.327 25.992 -20.812
O 76.986 0.036 -14.819
O 224.960 17.967 -29.918
O 44.814 13.728 -12.998
O 244.796 22.836 -2.829
O 31.570 26.738 -17.264
O 37.795 27.036 -15.168
O 253.476 14.956 -20.604
O 236.401 25.661 -17.542
O 30.791 0.666 -16.870
O 245.318 23.239 -24.304
O 66.651 31.109 -13.938
O 222.184 8.473 -29.625
O 42.675 18.000 -29.119
O 58.769 30.780 -3.570
O 250.272 14.174 -10.682
O 89.741 8.839 -6.653
O 47.366 23.246 -16.676
O 253.413 19.621 -25.301
O 92.578 23.097 -26.669
O 243.193 11.283 -2.381
O 54.123 27.932 -0.299
O 44.610 5.122 -23.761
O 229.924 28.037 -24.128
O 91.342 3.307 -26.109
O 244.425 15.782 -13.732
O 48.010 29.928 -14.305
O 31.921 15.522 -5.374
O 52.949 20.201 -14.852
O 246.517 8.762 -4.573
O 82.696 3.566 -15.799
O 241.254 23.219 -11.596
O 77.329 23.459 -25.407
O 62.466 23.177 -11.335
O 46.133 6.889 -25.291
O 249.770 3.868 -29.014
O 61.082 14.378 -7.532
O 71.544 7.039 -29.823
O 43.070 6.069 -7.653
O 68.153 23.413 -23.864
O 31.517 25.931 -12.920
O 66.731 6.944 -4.014
O 54.150 10.082 -18.713
O 252.520 23.158 -31.051
O 225.414 27.051 -3.979
O 82.148 8.039 -9.054
O 247.022 19.329 -8.197
O 32.055 13.042 -15.639
O 241.610 2.882 -0.746
O 79.876 29.494 -6.612
O 44.859 16.048 -24.754
O 246.025 9.526 -18.063
O 232.918 15.524 -15.787
O 54.765 27.661 -12.443
O 235.227 3.326 -12.432
O 73.404 26.009 -30.192
O 80.416 21.202 -5.442
O 250.153 2.881 -12.752
O 237.985 17.784 -2.981
O 57.434 18.661 -29.439
O 87.398 2.435 -15.985
O 244.945 6.082 -19.106
O 228.418 8.581 -23.713
O 36.914 16.853 -27.140
O 41.651 5.648 -11.383
O 242.799 13.364 -22.511
O 245.821 0.345 -8.066
O 51.203 11.008 -2.044
O 67.054 28.247 -14.026
O 56.265 11.473 -19.962
O 247.836 25.694 -27.247
O 60.597 1.270 -3.151
O 36.048 2.854 -1.310
O 248.075 7.478 -12.733
O 56.348 2.370 -4.885
O 37.902 9.872 -25.097
O 236.208 18.026 -8.149
O 38.547 12.279 -12.101
O 75.075 5.198 -12.670
O 253.393 19.000 -8.391
O 49.261 3.690 -8.350
O 247.178 7.880 -31.123
O 225.715 23.822 -31.319
O 251.038 2.963 -3.190
O 39.005 20.764 -9.031
O 53.174 27.950 -19.151
O 53.566 17.583 -29.656
O 237.475 20.503 -31.414
O 244.240 15.124 -24.027
O 89.644 7.860 -1.011
O 70.398 18.827 -4.763
O 244.856 30.947 -19.469
O 66.736 19.713 -25.384
O 233.994 6.088 -16.270
O 235.347 22.515 -31.148
O 38.973 14.077 -18.664
O 39.622 26.098 -12.606
O 67.258 20.766 -28.686
O 82.074 17.409 -10.203
O 48.541 4.115 -23.113
O 48.343 25.171 -30.781
O 244.791 28.304 -6.810
O 240.112 13.222 -26.488
O 82.549 6.898 -19.200
O 45.957 10.442 -30.340
O 85.882 31.278 -0.665
O 79.051 1.804 -8.756
O 65.881 22.261 -24.998
O 80.763 22.410 -0.430
O 234.932 7.324 -9.298
O 48.647 16.736 -12.160
O 229.264 24.314 -17.292
O 249.651 9.727 -11.256
O 43.407 10.748 -21.982
O 45.065 14.938 -9.522
O 52.133 27.707 -8.961
O 36.261 30.563 -2.264
O 85.346 4.592 -27.562
O 36.737 17.172 -23.067
O 221.135 18.927 -1.629
O 82.792 16.290 -30.979
O 56.259 21.848 -8.297
O 222.254 20.381 -5.752
O 90.317 13.971 -30.144
O 49.695 9.930 -18.722
O 59.937 9.680 -9.703
O 224.576 24.135 -6.404
O 34.041 0.864 -25.643
O 76.936 5.927 -31.190
O 55.992 10.880 -2.284
O 53.990 6.194 -12.618
O 47.475 28.150 -7.881
O 62.763 29.901 -26.646
O 235.705 21.524 -20.896
O 240.959 12.470 -4.717
O 230.749 8.420 -9.763
O 227.362 23.135 -6.080
O 44.988 4.178 -8.378
O 59.156 18.784 -19.516
O 250.244 15.947 -4.241
O 230.225 11.520 -12.884
O 68.086 12.285 -22.976
O 90.277 26.117 -6.391
O 248.581 5.983 -3.806
O 80.595 11.462 -18.711
O 48.096 16.263 -7.546
O 38.577 3.007 -21.175
O 66.253 22.274 -2.365
O 231.873 17.009 -2.883
O 84.317 31.405 -4.244
O 35.885 8.918 -13.594
O 64.256 11.154 -13.348
O 42.938 13.517 -22.355
O 42.132 12.818 -24.908
O 227.969 26.811 -19.459
O 34.210 25.966 -24.443
O 59.382 20.367 -4.071
O 89.956 24.166 -13.060
O 240.105 18.834 -19.298
O 60.007 9.383 -14.545
O 88.415 29.255 -26.933
O 86.347 24.524 -23.759
O 62.883 21.420 -5.312
O 73.125 20.441 -19.846
O 61.498 16.428 -9.706
O 40.751 29.862 -0.764
O 227.301 29.173 -28.247
O 52.107 30.435 -15.416
O 52.719 30.302 -20.265
O 54.441 3.938 -19.645
O 227.505 9.500 -3.543
O 61.784 15.066 -16.218
O 242.822 24.795 -19.995
O 42.436 12.402 -29.730
O 32.324 23.905 -24.247
O 36.666 19.318 -28.199
O 41.991 29.791 -8.167
O 50.861 21.137 -13.408
O 68.204 0.129 -16.438
O 41.473 12.503 -8.702
O 251.618 19.195 -4.832
O 40.736 0.865 -2.671
O 239.857 17.893 -6.843
O 242.790 5.496 -11.919
O 64.603 9.805 -15.654
O 233.075 12.879 -4.595
O 62.813 21.057 -30.631
O 39.688 20.389 -29.224
O 235.542 20.990 -13.061
O 69.583 24.878 -8.161
O 59.921 27.262 -6.154
O 84.140 8.257 -7.237
O 58.800 0.204 -17.888
O 235.544 0.236 -9.591
O 34.245 13.623 -19.429
O 86.353 7.734 -3.725
O 44.626 26.186 -8.631
O 252.355 28.130 -4.637
O 37.784 23.279 -27.345
O 29.228 24.893 -19.770
O 67.706 10.483 -7.474
O 88.827 18.691 -16.274
O 60.810 27.264 -1.055
O 221.560 7.347 -25.191
O 78.809 20.068 -23.795
O 31.061 3.288 -24.108
O 68.997 14.775 -6.206
O 232.781 0.721 -25.061
O 43.582 3.924 -15.217
O 46.221 15.640 -1.639
O 251.413 22.826 -13.208
O 248.879 27.828 -28.542
O 223.648 3.545 -26.461
O 40.545 10.320 -24.206
O 58.965 6.899 -6.786
O 237.591 5.674 -27.970
O 42.244 28.429 -4.898
O 55.089 25.159 -11.175
O 71.304 4.727 -0.199
O 73.278 30.410 -12.655
O 243.289 26.830 -30.919
O 51.447 8.619 -22.530
O 68.273 11.057 -14.170
O 229.904 16.958 -17.884
O 51.121 11.985 -30.912
O 236.360 23.166 -27.324
O 82.761 20.895 -17.509
O 60.493 29.750 -9.822
O 241.712 29.135 -18.682
O 226.087 7.487 -26.358
O 241.042 5.187 -13.982
O 81.019 17.148 -24.551
O 44.341 26.208 -18.656
O 79.446 12.081 -4.893
O 238.530 27.872 -29.549
O 237.512 31.048 -16.608
O 232.128 3.033 -22.806
O 252.780 12.848 -16.873
O 39.227 8.279 -16.337
O 226.353 7.101 -13.392
O 40.809 16.657 -25.715
O 235.087 2.937 -9.772
O 250.991 3.342 -0.188
O 249.232 19.863 -14.815
O 55.593 6.926 -28.084
O 91.225 16.498 -17.972
O 72.676 4.579 -23.362
O 62.784 15.895 -18.995
O 88.554 10.847 -3.997
O 76.852 10.953 -2.827
O 79.192 27.666 -4.629
O 238.777 7.323 -6.811
O 48.004 17.038 -14.947
O 46.344 20.431 -28.980
O 39.951 3.631 -10.093
O 62.109 1.452 -23.854
O 55.396 12.198 -31.211
O 225.673 18.887 -9.638
O 224.062 13.820 -28.815
O 55.769 29.918 -19.218
O 78.244 21.017 -15.368
O 253.472 4.932 -17.701
O 39.536 2.724 -17.580
O 242.890 19.425 -8.793
O 61.937 4.218 -6.580
O 232.471 16.555 -5.808
O 38.015 21.758 -2.325
O 247.326 26.689 -10.448
O 253.574 6.431 -2.173
O 247.926 28.586 -8.354
O 68.200 21.924 -13.217
O 241.449 16.051 -27.214
O 232.832 12.774 -25.829
O 67.600 28.962 -21.448
O 231.722 6.763 -2.634
O 30.943 11.255 -18.927
O 90.401 21.058 -10.286
O 250.508 29.724 -8.867
O 37.035 22.620 -19.544
O 41.608 25.774 -27.601
O 33.620 10.504 -12.011
O 234.743 25.027 -25.897
O 252.349 14.210 -30.888
O 234.516 5.894 -5.943
O 65.965 1.860 -6.158
O 241.284 30.347 -22.406
O 228.860 10.027 -10.841
O 246.445 30.346 -16.688
O 30.197 0.148 -9.472
O 88.252 21.050 -1.624
O 64.943 7.958 -30.469
O 35.892 24.035 -17.054
O 81.867 7.134 -14.956
O 74.657 14.788 -20.072
O 69.916 12.175 -12.071
O 52.719 25.236 -18.343
O 84.219 4.750 -8.388
O 55.115 24.145 -15.828
O 227.733 14.178 -18.740
O 88.054 11.125 -10.684
O 240.789 12.400 -18.539
O 54.636 29.617 -21.971
O 33.477 15.197 -23.094
O 54.493 5.129 -15.532
O 91.330 18.662 -25.955
O 44.247 17.797 -21.111
O 30.238 21.861 -0.464
O 55.992 8.384 -23.282
O 82.460 12.961 -8.983
O 76.713 23.333 -1.976
O 63.354 1.937 -5.418
O 59.071 2.092 -22.531
O 249.745 29.855 -20.326
O 54.985 5.208 -9.247
O 226.395 10.580 -14.983
O 90.892 25.317 -26.981
O 76.161 5.759 -24.821
O 84.616 21.871 -9.749
O 42.419 5.612 -17.102
O 245.086 10.141 -8.256
O 56.804 4.961 -23.139
O 43.043 25.965 -13.943
O 224.788 27.997 -21.834
O 86.697 23.402 -20.825
O 241.669 3.694 -3.512
O 79.359 14.060 -23.439
O 41.032 16.711 -14.876
O 34.640 1.537 -9.104
O 88.961 4.169 -22.546
O 59.755 29.953 -7.332
O 233.268 21.913 -12.009
O 226.193 8.319 -20.546
O 225.422 0.353 -0.028
O 248.685 31.248 -27.208
O 251.874 28.663 -21.578
O 47.785 2.245 -19.760
O 67.886 11.336 -10.046
O 64.059 16.930 -10.806
O 41.542 8.709 -14.703
O 242.572 29.696 -7.638
O 45.984 19.853 -19.525
O 67.489 0.219 -22.498
O 224.926 3.909 -12.226
O 230.480 28.256 -5.166
O 53.430 28.839 -25.627
O 53.541 7.519 -3.286
O 235.791 5.854 -11.895
O 56.691 0.350 -7.123
O 56.709 18.532 -18.617
O 33.477 24.982 -6.386
O 40.843 9.786 -18.141
O 57.153 0.554 -20.472
O 29.368 15.888 -28.294
O 57.556 13.316 -10.642
O 252.264 2.716 -16.953
O 41.829 20.325 -4.356
O 61.425 3.296 -10.133
O 83.022 0.971 -28.681
O 78.885 28.867 -28.043
O 35.383 20.757 -18.294
O 222.445 21.174 -3.130
O 231.753 7.382 -27.914
O 86.564 8.131 -27.949
O 241.591 9.717 -30.566
O 59.084 26.099 -16.496
O 92.433 12.184 -29.618
O 54.900 24.034 -8.670
O 240.249 30.317 -6.421
O 239.785 27.548 -24.162
O 77.382 16.677 -26.496
O 85.031 3.798 -1.083
O 59.145 23.203 -13.167
O 75.923 27.162 -5.286
O 233.441 22.416 -7.261
O 85.061 7.321 -1.317
O 251.857 7.076 -27.932
O 56.670 0.205 -9.891
O 83.378 9.941 -5.138
O 82.174 7.750 -26.822
O 78.147 22.594 -27.680
O 43.476 25.610 -21.252
O 246.316 1.981 -2.341
O 61.958 26.926 -24.740
O 41.307 7.697 -23.762
O 86.877 16.249 -3.501
O 32.137 28.222 -30.362
O 82.345 21.648 -20.267
O 82.401 5.853 -2.949
O 31.905 8.260 -30.434
O 82.844 24.382 -25.701
O 85.237 27.458 -25.170
O 244.699 16.390 -4.134
O 86.518 17.056 -23.682
O 232.419 26.678 -27.629
O 238.018 28.957 -7.686
O 82.905 2.138 -11.739
O 230.321 31.136 -1.434
O 222.687 17.727 -4.802
O 31.606 12.630 -12.296
O 66.704 16.375 -4.688
O 232.405 19.291 -11.349
O 242.413 4.428 -16.230
O 243.065 21.055 -29.623
O 33.170 5.591 -7.374
O 41.890 27.766 -16.287
O 82.102 15.682 -5.821
O 31.810 20.160 -6.861
O 239.741 24.908 -27.927
O 50.489 0.404 -7.899
O 71.127 30.218 -30.613
O 61.279 30.252 -19.293
O 77.038 28.984 -19.773
O 245.931 14.880 -15.926
O 238.889 17.866 -12.509
O 73.580 15.283 -5.908
O 74.635 4.346 -26.971
O 53.496 25.329 -25.248
O 53.459 10.894 -26.815
O 33.663 29.983 -12.604
O 92.143 15.025 -12.506
O 45.767 25.103 -6.078
O 236.481 7.514 -30.782
O 34.603 28.515 -3.693
O 30.303 17.912 -17.607
O 61.468 22.235 -25.767
O 62.652 23.726 -30.228
O 78.632 13.770 -10.536
O 65.842 11.112 -24.246
O 63.423 14.362 -3.420
O 45.342 29.278 -14.559
O 29.777 10.855 -11.116
O 82.086 18.665 -7.753
O 228.417 1.352 -13.409
O 89.291 26.959 -14.128
O 229.792 11.696 -19.812
O 67.621 25.557 -15.156
O 250.702 24.302 -6.723
O 232.634 12.522 -10.317
O 252.462 0.525 -18.633
O 226.611 20.794 -11.292
O 76.819 4.715 -20.350
O 55.015 8.760 -1.308
O 75.052 14.940 -28.298
O 228.364 8.819 -26.436
O 31.224 22.875 -19.127
O 228.789 29.482 -19.502
O 78.002 3.250 -6.600
O 70.471 30.652 -12.448
O 225.768 17.268 -4.891
O 65.109 7.546 -6.053
O 247.961 12.104 -1.116
O 231.713 3.152 -16.818
O 253.697 8.557 -12.178
O 55.410 19.380 -9.622
O 220.661 6.095 -28.006
O 240.167 18.078 -16.508
O 74.701 30.332 -21.129
O 231.529 10.621 -26.811
O 52.340 21.300 -27.636
O 244.654 4.925 -14.703
O 67.366 7.633 -7.975
O 34.685 13.164 -28.232
O 223.952 17.993 -17.492
O 45.845 18.311 -23.464
O 65.615 14.734 -10.721
O 81.910 23.263 -9.248
O 52.025 22.949 -20.728
O 37.419 19.623 -23.786
O 245.132 1.632 -29.209
O 251.263 4.112 -22.055
O 33.279 24.236 -14.489
O 54.414 15.874 -15.271
O 87.748 27.151 -9.355
O 253.502 16.227 -15.828
O 248.018 11.508 -7.148
O 30.059 4.273 -29.834
O 68.059 4.720 -28.049
O 250.951 11.821 -1.886
O 45.048 9.079 -10.121
O 234.287 8.319 -19.521
O 41.850 12.330 -0.903
O 67.079 22.924 -19.558
O 51.873 24.304 -7.792
O 233.843 6.742 -30.901
O 229.058 12.232 -22.564
O 61.378 22.004 -15.907
O 72.101 23.322 -23.690
O 51.402 1.190 -3.025
O 88.638 12.388 -13.336
O 224.359 1.787 -28.672
O 30.681 10.881 -14.776
O 51.506 27.089 -1.661
C 176.388 27.307 -12.497
O 175.544 27.668 -11.788
O 177.232 26.946 -13.206
C 106.265 14.098 -9.533
O 105.190 13.762 -9.253
O 107.339 14.434 -9.813
C 217.756 26.472 -18.056
O 217.450 26.928 -19.077
O 218.063 26.015 -17.034
C 103.201 7.897 -21.205
O 102.672 7.781 -20.179
O 103.730 8.014 -22.231
C 189.570 7.176 -2.962
O 188.564 6.604 -2.891
O 190.577 7.749 -3.032
C 117.814 6.725 -12.682
O 117.330 7.671 -13.147
O 118.298 5.779 -12.218
C 171.434 13.872 -7.498
O 171.952 14.896 -7.331
O 170.917 12.847 -7.664
C 111.830 16.226 -18.232
O 111.545 16.986 -17.403
O 112.115 15.465 -19.061
C 100.244 28.202 -23.568
O 100.614 27.601 -24.488
O 99.874 28.804 -22.648
C 172.256 23.588 -7.718
O 172.939 24.073 -6.915
O 171.574 23.103 -8.521
C 170.387 31.288 -13.755
O 170.009 30.204 -13.591
O 170.765 0.940 -13.919
C 216.562 29.219 -22.826
O 216.949 28.316 -23.444
O 216.175 30.122 -22.209
C 165.074 13.366 -1.084
O 165.108 14.491 -1.362
O 165.039 12.240 -0.805
C 141.689 7.990 -10.471
O 142.108 8.611 -9.586
O 141.270 7.368 -11.357
C 216.028 8.308 -5.023
O 214.933 7.932 -4.950
O 217.123 8.684 -5.096
C 223.130 26.529 -13.994
O 224.225 26.267 -13.718
O 222.034 26.792 -14.270
C 215.403 0.976 -0.711
O 214.342 1.356 -0.434
O 216.463 0.596 -0.987
C 218.725 22.354 -16.729
O 218.277 22.762 -17.718
O 219.173 21.946 -15.740
C 180.193 22.076 -13.991
O 180.896 21.226 -14.351
O 179.491 22.926 -13.631
C 122.195 10.502 -24.440
O 121.395 10.270 -25.247
O 122.995 10.733 -23.633
C 210.586 30.645 -23.765
O 210.638 30.257 -22.672
O 210.535 31.032 -24.857
C 220.822 6.796 -12.566
O 220.518 7.405 -11.627
O 221.126 6.187 -13.505
C 94.317 26.092 -14.314
O 95.053 26.967 -14.121
O 93.580 25.217 -14.508
C 196.058 22.073 -22.756
O 196.690 21.120 -22.952
O 195.427 23.027 -22.561
C 125.521 1.989 -31.060
O 125.610 0.923 -30.611
O 125.433 3.056 -0.076
C 139.053 13.399 -18.471
O 138.162 13.148 -19.169
O 139.945 13.650 -17.773
C 117.743 22.787 -25.503
O 117.473 23.701 -26.166
O 118.013 21.874 -24.841
C 184.795 10.248 -29.151
O 185.953 10.309 -29.176
O 183.636 10.188 -29.126
C 241.215 20.135 -12.392
O 241.531 20.340 -13.489
O 240.900 19.931 -11.294
C 188.486 16.541 -24.516
O 189.053 16.855 -23.555
O 187.918 16.227 -25.478
C 184.172 9.044 -12.400
O 183.635 8.594 -13.325
O 184.708 9.493 -11.475
C 205.091 5.686 -29.365
O 205.563 5.122 -28.468
O 204.619 6.249 -30.263
C 191.732 21.154 -0.744
O 192.232 20.231 -0.251
O 191.233 22.078 -1.236
C 94.271 0.650 -14.073
O 94.045 31.135 -13.443
O 94.496 1.597 -14.704
C 147.337 5.382 -6.382
O 148.049 5.637 -7.261
O 146.625 5.127 -5.502
C 198.978 7.869 -9.916
O 197.825 7.748 -9.964
O 200.130 7.990 -9.869
C 143.199 24.253 -22.486
O 142.400 23.413 -22.469
O 143.999 25.094 -22.503
C 99.618 5.936 -25.070
O 100.317 5.609 -25.937
O 98.919 6.263 -24.204
C 95.318 25.154 -0.651
O 94.522 25.874 -0.211
O 96.115 24.435 -1.091
C 220.480 1.146 -28.166
O 220.794 1.585 -27.139
O 220.165 0.708 -29.192
C 191.580 21.659 -4.656
O 191.573 22.650 -5.259
O 191.587 20.668 -4.053
C 92.603 23.105 -5.799
O 93.177 22.961 -6.796
O 92.029 23.248 -4.801
C 93.944 17.114 -21.222
O 93.483 16.102 -21.554
O 94.404 18.125 -20.890
C 219.518 30.376 -21.166
O 219.814 30.606 -22.264
O 219.223 30.145 -20.068
C 94.493 21.422 -16.133
O 94.231 22.323 -15.452
O 94.755 20.520 -16.814
C 122.350 29.759 -12.816
O 123.093 29.808 -13.705
O 121.606 29.710 -11.927
C 221.443 17.282 -8.536
O 220.552 17.972 -8.808
O 222.335 16.592 -8.263
C 122.687 14.707 -5.839
O 123.501 13.913 -5.607
O 121.874 15.501 -6.071
C 213.946 28.373 -28.296
O 214.981 28.206 -28.791
O 212.911 28.540 -27.800
C 88.309 8.436 -14.050
O 87.165 8.254 -13.991
O 89.453 8.619 -14.110
C 89.824 30.164 -7.627
O 90.936 30.062 -7.939
O 88.711 30.266 -7.315
C 217.475 23.440 -6.567
O 217.467 23.129 -5.449
O 217.482 23.750 -7.684
C 219.312 9.342 -15.230
O 220.227 9.021 -14.594
O 218.397 9.664 -15.867
C 145.174 28.378 -5.499
O 145.492 29.461 -5.230
O 144.855 27.295 -5.767
C 140.873 29.453 -7.250
O 141.616 29.731 -6.404
O 140.130 29.175 -8.096
C 104.333 12.045 -25.413
O 104.962 13.010 -25.275
O 103.705 11.079 -25.551
C 157.770 24.283 -16.414
O 157.548 25.396 -16.654
O 157.993 23.170 -16.174
C 125.652 16.972 -29.333
O 126.033 15.885 -29.474
O 125.272 18.058 -29.193
C 131.081 8.992 -29.483
O 130.141 8.349 -29.703
O 132.021 9.635 -29.264
C 91.798 29.695 -13.313
O 91.339 30.579 -13.907
O 92.257 28.810 -12.720
C 111.310 5.389 -9.470
O 111.874 6.352 -9.153
O 110.745 4.426 -9.786
C 217.876 17.202 -16.168
O 216.958 17.815 -15.812
O 218.794 16.589 -16.525
C 169.711 28.863 -25.667
O 169.485 28.048 -26.461
O 169.938 29.678 -24.873
C 130.218 22.153 -21.771
O 130.870 23.046 -22.122
O 129.567 21.260 -21.420
C 216.419 5.888 -0.425
O 216.011 6.954 -0.634
O 216.827 4.823 -0.215
C 91.767 29.704 -4.960
O 91.891 28.654 -5.438
O 91.643 30.753 -4.481
C 216.085 0.505 -28.558
O 215.302 0.190 -27.762
O 216.869 0.820 -29.353
C 181.682 2.953 -2.715
O 181.994 2.230 -1.863
O 181.370 3.676 -3.566
C 138.071 1.360 -27.851
O 138.170 1.470 -29.001
O 137.973 1.251 -26.700
C 95.094 9.114 -7.005
O 95.080 8.420 -7.934
O 95.109 9.809 -6.076
C 253.274 25.861 -7.198
O 252.829 25.978 -8.263
O 29.198 25.744 -6.133
C 218.760 1.096 -17.717
O 219.721 1.746 -17.725
O 217.798 0.447 -17.710
C 56.230 18.904 -0.736
O 55.714 19.548 -31.353
O 56.746 18.259 -1.551
C 157.083 16.137 -19.395
O 156.461 16.185 -20.373
O 157.706 16.089 -18.417
C 214.875 4.037 -4.014
O 215.285 3.918 -2.935
O 214.466 4.155 -5.093
C 159.980 17.842 -4.802
O 160.775 18.680 -4.688
O 159.186 17.005 -4.916
C 119.305 21.393 -13.247
O 120.382 21.822 -13.305
O 118.229 20.965 -13.190
C 123.347 18.116 -22.497
O 123.897 19.010 -22.003
O 122.797 17.222 -22.991
C 223.359 27.830 -8.172
O 223.795 28.757 -8.716
O 222.922 26.904 -7.627
C 177.011 11.639 -2.042
O 177.029 12.024 -0.948
O 176.992 11.254 -3.136
C 235.278 17.780 -30.472
O 234.129 17.853 -30.617
O 236.426 17.707 -30.326
C 217.079 4.116 -10.396
O 216.599 3.366 -11.139
O 217.559 4.867 -9.652
C 121.399 27.427 -25.374
O 121.593 28.570 -25.365
O 121.205 26.283 -25.384
C 204.946 2.338 -28.373
O 205.632 2.656 -29.252
O 204.259 2.021 -27.493
C 219.734 14.783 -11.905
O 219.554 15.879 -11.571
O 219.915 13.687 -12.241
C 142.860 29.543 -21.501
O 143.159 29.511 -20.381
O 142.562 29.575 -22.622
C 92.415 24.780 -9.304
O 92.809 25.349 -8.373
O 92.021 24.211 -10.235
C 160.359 12.192 -17.075
O 160.683 12.442 -18.160
O 160.035 11.942 -15.989
C 98.129 29.269 -0.288
O 98.520 30.011 -30.919
O 97.737 28.527 -1.089
C 108.921 25.282 -30.358
O 108.079 24.491 -30.469
O 109.763 26.072 -30.247
C 90.940 16.616 -1.344
O 91.251 16.320 -2.422
O 90.629 16.912 -0.266
C 217.580 16.615 -2.896
O 217.615 15.939 -3.838
O 217.544 17.291 -1.954
C 211.436 18.348 -22.290
O 211.326 17.922 -21.216
O 211.545 18.774 -23.363
C 122.498 21.059 -31.410
O 123.224 20.806 -0.846
O 121.771 21.312 -30.541
C 251.562 17.680 -26.872
O 251.447 17.969 -27.990
O 251.678 17.391 -25.755
C 181.718 9.893 -24.549
O 181.922 8.997 -25.257
O 181.514 10.789 -23.841
C 159.218 10.763 -27.991
O 159.495 11.570 -28.777
O 158.940 9.956 -27.205
C 221.425 16.027 -15.423
O 221.637 16.452 -16.481
O 221.212 15.602 -14.365
C 197.865 6.556 -5.838
O 197.745 6.520 -6.991
O 197.984 6.592 -4.685
C 133.502 29.624 -5.466
O 132.621 28.887 -5.306
O 134.383 30.361 -5.625
C 212.644 30.585 -8.493
O 212.967 29.634 -7.913
O 212.321 0.104 -9.073
C 139.973 26.686 -3.913
O 140.646 26.772 -2.973
O 139.300 26.601 -4.854
C 131.537 11.985 -27.090
O 131.047 10.996 -26.733
O 132.027 12.974 -27.448
C 111.847 9.590 -7.341
O 110.819 9.209 -7.721
O 112.875 9.970 -6.962
C 183.126 14.227 -7.104
O 182.798 14.473 -6.019
O 183.455 13.982 -8.189
C 211.957 17.787 -0.566
O 211.463 18.835 -0.602
O 212.451 16.738 -0.529
C 122.120 4.338 -31.220
O 122.419 3.616 -30.363
O 121.820 5.059 -0.646
C 93.350 1.820 -19.360
O 93.743 2.557 -20.165
O 92.957 1.083 -18.555
C 92.922 7.792 -30.269
O 93.836 7.287 -29.763
O 92.008 8.297 -30.774
C 219.386 12.624 -4.403
O 218.667 13.491 -4.679
O 220.105 11.756 -4.126
C 214.119 7.704 -29.404
O 215.169 8.146 -29.622
O 213.069 7.262 -29.186
C 132.255 24.280 -9.567
O 133.140 24.607 -10.241
O 131.369 23.952 -8.893
C 84.654 10.862 -11.810
O 84.831 11.307 -12.866
O 84.478 10.417 -10.753
C 222.788 0.576 -7.217
O 223.874 0.234 -6.994
O 221.702 0.918 -7.439
C 64.282 21.110 -27.738
O 64.222 22.260 -27.881
O 64.342 19.961 -27.595
C 218.373 5.359 -15.824
O 218.692 4.264 -16.034
O 218.054 6.455 -15.614
C 169.355 7.099 -1.876
O 170.131 7.307 -2.714
O 168.580 6.890 -1.039
C 97.016 22.106 -2.861
O 95.906 22.297 -3.139
O 98.126 21.915 -2.583
C 198.035 30.838 -31.277
O 199.059 30.294 -31.230
O 197.012 31.381 -31.324
C 174.498 28.029 -3.839
O 173.736 28.657 -3.230
O 175.261 27.402 -4.448
C 105.937 6.143 -4.200
O 106.768 6.938 -4.048
O 105.105 5.349 -4.353
C 92.797 4.886 -18.779
O 92.444 4.354 -17.810
O 93.150 5.418 -19.747
C 163.251 22.293 -1.093
O 162.171 22.655 -1.311
O 164.332 21.931 -0.875
C 98.892 25.391 -11.495
O 98.801 26.197 -10.666
O 98.983 24.585 -12.324
C 96.011 20.925 -30.381
O 95.804 20.778 -29.249
O 96.219 21.073 -0.080
C 98.103 21.930 -25.113
O 98.377 23.055 -25.183
O 97.829 20.805 -25.042
C 213.162 31.253 -3.729
O 212.715 30.545 -2.927
O 213.608 0.530 -4.532
C 211.607 8.800 -9.356
O 212.387 9.324 -8.676
O 210.827 8.277 -10.037
C 211.810 24.066 -19.869
O 211.313 23.228 -20.498
O 212.308 24.904 -19.240
C 234.293 18.633 -4.791
O 233.533 19.276 -5.387
O 235.052 17.990 -4.194
C 103.077 0.555 -4.571
O 102.002 0.835 -4.238
O 104.153 0.274 -4.904
C 220.416 21.595 -9.219
O 220.167 20.953 -8.285
O 220.666 22.237 -10.152
C 214.836 26.733 -24.953
O 214.853 25.686 -24.453
O 214.820 27.779 -25.453
C 148.485 27.566 -24.465
O 148.248 26.450 -24.671
O 148.722 28.683 -24.259
C 155.645 11.860 -16.719
O 155.127 12.405 -15.836
O 156.163 11.316 -17.602
C 102.528 7.836 -11.948
O 101.392 7.730 -12.158
O 103.664 7.942 -11.738
C 204.706 15.597 -19.057
O 205.577 16.362 -19.110
O 203.836 14.832 -19.005
C 185.186 4.478 -5.610
O 184.170 4.875 -5.216
O 186.203 4.081 -6.004
C 209.202 12.325 -26.884
O 208.999 11.293 -27.372
O 209.405 13.358 -26.396
C 195.206 26.102 -22.891
O 195.562 26.109 -21.788
O 194.849 26.095 -23.995
C 167.568 14.297 -4.566
O 168.524 13.640 -4.550
O 166.612 14.953 -4.581
C 188.620 12.658 -6.690
O 189.299 11.719 -6.631
O 187.940 13.596 -6.750
C 102.784 21.233 -21.376
O 103.157 20.472 -20.584
O 102.411 21.994 -22.168
C 223.048 24.086 -9.597
O 223.382 24.784 -10.461
O 222.714 23.389 -8.732
C 93.070 8.825 -27.190
O 93.743 9.673 -27.607
O 92.397 7.978 -26.772
C 146.995 22.687 -16.412
O 146.175 22.254 -15.714
O 147.814 23.120 -17.109
C 57.316 22.109 -28.743
O 56.220 21.759 -28.891
O 58.411 22.459 -28.596
C 222.042 28.779 -16.858
O 221.791 27.979 -17.660
O 222.293 29.579 -16.056
C 121.409 20.991 -5.292
O 122.169 20.116 -5.345
O 120.649 21.866 -5.239
C 172.552 6.635 -4.943
O 171.776 6.825 -5.784
O 173.329 6.445 -4.102
C 204.806 2.842 -1.251
O 204.363 3.896 -1.056
O 205.250 1.788 -1.446
C 93.814 26.646 -17.276
O 94.851 26.197 -17.537
O 92.776 27.094 -17.014
C 134.262 21.680 -14.653
O 133.545 21.327 -13.812
O 134.979 22.032 -15.494
C 100.421 31.267 -11.770
O 99.575 30.495 -11.583
O 101.266 0.606 -11.958
C 216.840 26.848 -6.782
O 217.682 26.675 -6.003
O 215.998 27.022 -7.561
C 221.642 6.561 -4.220
O 221.605 6.409 -3.071
O 221.679 6.714 -5.370
C 173.077 3.699 -15.561
O 172.383 4.172 -16.361
O 173.771 3.226 -14.761
C 98.418 11.635 -25.589
O 99.520 11.326 -25.400
O 97.317 11.945 -25.779
C 215.818 11.595 -8.067
O 216.086 12.059 -9.096
O 215.550 11.132 -7.038
C 95.671 29.897 -24.077
O 96.686 29.744 -24.618
O 94.657 30.050 -23.535
C 125.154 2.550 -26.702
O 125.433 1.812 -25.851
O 124.874 3.287 -27.553
C 152.697 13.946 -15.931
O 153.297 14.660 -15.241
O 152.098 13.233 -16.622
C 213.507 3.538 -28.110
O 213.392 3.920 -27.021
O 213.622 3.156 -29.199
C 110.798 11.164 -18.477
O 110.736 10.082 -18.892
O 110.860 12.245 -18.062
C 221.311 26.230 -4.624
O 221.260 27.389 -4.636
O 221.362 25.071 -4.612
C 221.944 26.779 -21.348
O 222.666 25.915 -21.070
O 221.222 27.642 -21.627
C 214.778 22.669 -16.930
O 215.531 22.377 -16.097
O 214.025 22.960 -17.762
C 127.384 30.712 -13.251
O 126.868 0.012 -12.515
O 127.900 29.979 -13.988
C 100.026 6.173 -15.719
O 98.951 6.507 -15.440
O 101.101 5.839 -15.999
C 44.025 6.644 -12.727
O 44.584 6.901 -11.744
O 43.465 6.387 -13.711
C 93.075 27.141 -25.557
O 93.089 27.872 -26.458
O 93.061 26.411 -24.657
C 111.583 19.171 -13.758
O 111.591 20.262 -14.153
O 111.574 18.081 -13.363
C 216.659 15.509 -25.701
O 216.506 16.126 -24.731
O 216.811 14.891 -26.671
C 62.900 8.814 -23.303
O 62.674 9.834 -23.808
O 63.127 7.794 -22.799
C 110.919 25.669 -19.487
O 110.823 26.809 -19.294
O 111.015 24.530 -19.680
C 223.505 30.295 -12.429
O 222.770 30.854 -13.131
O 224.240 29.736 -11.726
C 204.517 5.144 -12.024
O 204.659 5.227 -13.172
O 204.375 5.061 -10.875
C 96.820 18.364 -17.167
O 96.998 18.635 -16.053
O 96.643 18.094 -18.281
C 250.850 24.529 -27.999
O 250.631 25.233 -28.894
O 251.068 23.826 -27.103
C 184.555 25.764 -4.063
O 185.438 26.115 -3.398
O 183.671 25.413 -4.727
C 208.629 16.667 -25.914
O 207.527 16.304 -25.916
O 209.731 17.029 -25.912
C 67.434 2.931 -19.696
O 67.092 2.641 -18.626
O 67.777 3.221 -20.766
C 148.694 13.914 -13.615
O 149.595 14.636 -13.501
O 147.793 13.193 -13.729
C 210.756 26.876 -26.935
O 211.085 26.960 -25.826
O 210.427 26.792 -28.044
C 217.164 19.690 -5.954
O 217.897 19.178 -5.215
O 216.431 20.201 -6.693
C 219.962 25.146 -14.717
O 219.528 25.500 -13.701
O 220.397 24.793 -15.733
C 220.140 2.368 -13.421
O 219.475 1.550 -13.905
O 220.805 3.187 -12.937
C 132.971 2.487 -5.043
O 131.881 2.334 -5.407
O 134.062 2.640 -4.679
C 176.110 22.331 -6.620
O 176.104 21.742 -5.621
O 176.116 22.919 -7.620
C 133.523 24.870 -2.314
O 133.531 25.755 -1.565
O 133.515 23.984 -3.063
C 94.247 20.747 -11.309
O 94.678 21.648 -11.900
O 93.817 19.846 -10.718
C 38.855 7.695 -1.975
O 38.990 7.593 -3.122
O 38.721 7.797 -0.827
C 194.974 15.598 -11.540
O 195.420 15.109 -12.493
O 194.528 16.087 -10.587
C 109.334 16.498 -3.911
O 108.975 17.397 -4.549
O 109.693 15.598 -3.272
C 110.387 4.920 -19.669
O 109.946 4.108 -20.370
O 110.827 5.732 -18.967
C 210.989 11.952 -4.727
O 211.846 11.531 -4.067
O 210.133 12.372 -5.387
C 213.530 13.655 -0.840
O 214.342 13.398 -0.053
O 212.717 13.912 -1.626
C 174.309 9.160 -26.480
O 173.760 8.686 -27.385
O 174.858 9.634 -25.575
C 105.391 1.302 -15.544
O 104.482 1.684 -14.934
O 106.300 0.919 -16.155
C 218.418 10.006 -11.018
O 218.097 9.330 -11.905
O 218.739 10.681 -10.131
C 117.643 5.393 -26.219
O 118.758 5.355 -26.537
O 116.528 5.432 -25.901
C 194.766 12.327 -11.675
O 195.566 11.730 -12.266
O 193.967 12.924 -11.084
C 96.584 20.947 -21.570
O 95.467 21.254 -21.501
O 97.701 20.641 -21.639
C 225.553 18.469 -22.869
O 224.957 18.179 -21.918
O 226.149 18.759 -23.821
C 170.198 21.803 -13.649
O 169.979 22.650 -12.887
O 170.417 20.956 -14.410
C 92.053 19.426 -6.526
O 92.797 20.219 -6.123
O 91.309 18.632 -6.929
C 204.571 4.058 -23.278
O 205.249 3.239 -22.814
O 203.892 4.876 -23.742
C 204.907 22.724 -3.557
O 205.766 22.222 -4.153
O 204.048 23.226 -2.961
C 201.264 13.647 -20.119
O 201.731 12.694 -19.650
O 200.798 14.600 -20.588
C 250.444 23.185 -3.119
O 250.394 22.375 -3.948
O 250.494 23.995 -2.290
C 238.659 22.108 -3.587
O 238.854 20.971 -3.468
O 238.464 23.245 -3.706
C 121.492 26.570 -21.181
O 121.503 26.967 -22.271
O 121.481 26.172 -20.091
C 204.156 17.031 -1.276
O 204.181 17.802 -2.143
O 204.132 16.261 -0.409
C 122.930 3.716 -17.062
O 123.162 3.307 -18.122
O 122.698 4.124 -16.001
C 92.827 6.698 -3.310
O 93.700 7.450 -3.444
O 91.954 5.947 -3.175
C 222.801 20.851 -27.264
O 223.259 20.581 -28.295
O 222.343 21.121 -26.233
C 207.699 1.116 -4.241
O 207.043 1.830 -3.605
O 208.355 0.401 -4.877
C 101.949 7.678 -27.465
O 101.106 7.558 -28.253
O 102.792 7.798 -26.677
C 150.275 26.203 -20.243
O 151.112 26.634 -19.566
O 149.438 25.772 -20.920
C 146.862 16.064 -3.188
O 146.248 15.881 -2.222
O 147.477 16.248 -4.155
C 130.403 18.496 -6.613
O 130.778 17.525 -6.100
O 130.029 19.466 -7.125
C 89.295 4.549 -19.157
O 89.608 5.554 -19.644
O 88.983 3.544 -18.669
C 96.336 22.931 -7.321
O 96.829 22.054 -6.744
O 95.843 23.808 -7.898
C 215.182 18.346 -29.540
O 216.053 19.005 -29.148
O 214.311 17.688 -29.931
C 131.915 1.270 -30.091
O 131.499 2.304 -29.770
O 132.331 0.236 -30.412
C 123.472 3.543 -22.615
O 124.266 4.076 -23.271
O 122.677 3.010 -21.959
C 134.877 24.942 -27.653
O 134.077 24.103 -27.614
O 135.677 25.781 -27.692
C 122.734 6.912 -27.599
O 122.921 6.152 -28.454
O 122.547 7.673 -26.743
C 213.836 14.579 -5.282
O 213.607 15.572 -4.729
O 214.065 13.585 -5.835
C 210.849 12.146 -30.660
O 211.206 11.453 -0.086
O 210.492 12.840 -29.801
C 155.106 20.712 -13.245
O 154.642 21.103 -14.233
O 155.571 20.321 -12.257
C 210.495 29.541 -1.246
O 211.069 29.175 -0.306
O 209.922 29.906 -2.186
C 221.571 27.635 -31.373
O 221.014 28.186 -0.796
O 222.128 27.084 -30.517
C 96.018 24.485 -28.040
O 95.937 23.331 -27.957
O 96.099 25.639 -28.123
C 145.538 13.961 -9.915
O 145.936 14.541 -8.993
O 145.140 13.381 -10.837
C 121.680 14.234 -24.491
O 122.667 13.752 -24.117
O 120.693 14.716 -24.864
C 96.043 24.179 -23.811
O 96.262 25.277 -23.510
O 95.824 23.080 -24.113
C 93.863 15.330 -18.271
O 94.606 16.171 -17.976
O 93.121 14.489 -18.567
C 133.050 13.704 -30.705
O 132.480 14.518 -31.303
O 133.620 12.889 -30.106
C 218.761 29.203 -28.296
O 218.002 29.809 -27.663
O 219.520 28.596 -28.930
C 141.517 18.082 -13.575
O 142.368 17.598 -12.954
O 140.665 18.567 -14.196
C 219.144 2.478 -22.036
O 218.215 2.054 -21.486
O 220.073 2.902 -22.586
C 178.396 20.680 -19.114
O 179.288 20.378 -18.436
O 177.505 20.983 -19.791
C 175.746 21.426 -30.468
O 174.703 21.097 -30.080
O 176.789 21.754 -30.855
C 190.989 5.753 -13.905
O 190.532 4.687 -13.878
O 191.447 6.818 -13.932
C 138.292 25.020 -11.356
O 139.203 24.490 -11.841
O 137.382 25.549 -10.870
C 99.370 5.168 -8.327
O 99.700 4.136 -8.742
O 99.039 6.200 -7.913
C 166.712 14.567 -12.327
O 165.574 14.434 -12.510
O 167.850 14.701 -12.144
C 253.389 19.495 -2.131
O 252.497 20.051 -1.640
O 29.759 18.938 -2.622
C 126.027 20.022 -6.237
O 126.626 19.029 -6.222
O 125.428 21.016 -6.253
C 152.293 13.856 -19.342
O 152.788 12.845 -19.622
O 151.799 14.867 -19.061
C 105.603 16.132 -27.332
O 104.491 16.277 -27.036
O 106.715 15.987 -27.629
C 216.623 7.203 -22.260
O 216.770 7.978 -23.111
O 216.476 6.429 -21.409
C 161.217 14.125 -11.282
O 160.278 14.605 -11.765
O 162.156 13.646 -10.798
C 133.404 4.052 -7.581
O 133.240 3.130 -8.266
O 133.568 4.974 -6.897
C 212.090 27.379 -22.235
O 212.990 27.818 -22.821
O 211.191 26.940 -21.648
C 134.185 14.142 -19.228
O 133.074 13.896 -19.451
O 135.297 14.387 -19.005
C 208.849 20.047 -6.442
O 209.955 20.244 -6.151
O 207.744 19.850 -6.733
C 212.223 17.558 -28.045
O 212.334 18.699 -27.868
O 212.113 16.417 -28.223
C 187.181 24.213 -18.381
O 187.277 24.384 -19.524
O 187.085 24.043 -17.237
C 131.845 6.696 -25.343
O 132.050 6.940 -26.459
O 131.640 6.452 -24.228
C 89.672 2.327 -4.745
O 89.612 2.849 -3.711
O 89.731 1.804 -5.779
C 111.391 13.577 -30.196
O 112.518 13.672 -29.942
O 110.263 13.482 -30.451
C 146.588 24.996 -20.221
O 146.510 24.154 -21.015
O 146.666 25.837 -19.426
C 216.692 26.449 -12.045
O 216.481 27.156 -12.940
O 216.902 25.742 -11.149
C 193.342 5.583 -5.604
O 194.435 5.962 -5.523
O 192.249 5.204 -5.685
C 126.251 19.581 -1.814
O 125.994 19.563 -0.683
O 126.509 19.599 -2.945
C 179.934 15.466 -2.267
O 180.480 15.848 -1.318
O 179.388 15.083 -3.216
C 204.763 22.338 -27.717
O 203.792 22.972 -27.685
O 205.734 21.705 -27.748
C 223.165 14.022 -6.167
O 222.031 14.128 -6.385
O 224.299 13.916 -5.949
C 93.383 15.786 -4.392
O 94.031 15.463 -3.487
O 92.734 16.109 -5.298
C 91.091 6.032 -10.645
O 90.482 6.729 -11.344
O 91.700 5.334 -9.947
C 140.033 3.680 -14.131
O 140.523 2.631 -14.057
O 139.543 4.729 -14.205
C 130.843 27.521 -10.473
O 130.084 27.887 -11.270
O 131.602 27.155 -9.676
C 193.971 15.632 -29.876
O 194.399 16.707 -29.800
O 193.542 14.557 -29.951
C 89.263 31.089 -19.080
O 88.415 31.149 -19.869
O 90.112 31.029 -18.291
C 100.968 21.501 -30.965
O 100.412 22.448 -30.593
O 101.524 20.553 -31.337
C 203.049 18.414 -5.107
O 201.962 18.014 -5.049
O 204.137 18.813 -5.164
C 211.435 21.640 -25.642
O 210.488 21.006 -25.425
O 212.382 22.273 -25.860
C 131.373 30.120 -16.538
O 131.436 30.858 -17.431
O 131.309 29.382 -15.645
C 193.381 2.104 -26.167
O 192.758 1.798 -25.237
O 194.003 2.409 -27.098
C 216.751 8.246 -18.718
O 215.593 8.220 -18.658
O 217.909 8.271 -18.777
C 189.252 8.759 -15.253
O 189.844 9.718 -15.526
O 188.660 7.799 -14.980
C 169.176 26.203 -6.644
O 168.048 26.043 -6.426
O 170.304 26.362 -6.862
C 108.691 27.549 -15.112
O 109.105 26.839 -15.930
O 108.278 28.259 -14.293
C 222.720 30.014 -28.485
O 223.576 30.529 -29.075
O 221.865 29.499 -27.895
C 104.910 25.489 -29.145
O 105.270 26.462 -29.664
O 104.550 24.516 -28.627
C 177.771 14.508 -17.286
O 178.116 14.747 -18.368
O 177.427 14.270 -16.204
C 127.949 0.263 -2.960
O 126.938 31.191 -2.698
O 128.961 0.767 -3.221
C 91.987 10.264 -9.672
O 91.630 9.169 -9.536
O 92.343 11.360 -9.807
C 135.683 5.098 -11.442
O 135.908 4.270 -10.661
O 135.459 5.926 -12.223
C 202.514 18.373 -14.948
O 203.311 18.105 -15.746
O 201.716 18.641 -14.149
C 127.070 5.567 -10.186
O 126.240 4.840 -9.831
O 127.900 6.295 -10.542
C 125.919 23.078 -18.774
O 125.871 22.045 -18.249
O 125.967 24.110 -19.300
C 73.727 2.911 -30.623
O 73.482 1.908 -31.152
O 73.971 3.914 -30.094
C 156.988 16.737 -13.199
O 155.885 17.047 -13.018
O 158.091 16.427 -13.379
C 98.791 2.968 -16.272
O 97.997 2.548 -17.005
O 99.586 3.388 -15.539
C 182.675 6.720 -27.665
O 182.153 7.047 -28.647
O 183.196 6.392 -26.682
C 167.047 17.295 -14.858
O 168.127 17.021 -15.178
O 165.966 17.570 -14.539
C 141.581 12.159 -26.066
O 141.979 11.797 -25.038
O 141.183 12.521 -27.093
C 168.174 13.495 -28.655
O 168.823 12.535 -28.703
O 167.525 14.455 -28.608
C 218.769 29.922 -4.228
O 217.878 29.312 -3.805
O 219.661 30.532 -4.652
C 201.506 7.534 -14.183
O 200.967 8.351 -14.806
O 202.044 6.717 -13.561
C 118.564 20.537 -20.780
O 117.451 20.242 -20.636
O 119.677 20.831 -20.924
C 211.291 4.948 -23.864
O 211.036 6.033 -24.186
O 211.546 3.863 -23.543
C 210.813 8.208 -27.009
O 211.380 8.532 -26.051
O 210.245 7.883 -27.967
C 114.788 5.780 -29.149
O 113.688 5.693 -28.792
O 115.889 5.867 -29.505
C 199.497 0.405 -15.767
O 198.683 31.026 -15.608
O 200.310 1.217 -15.926
C 130.662 22.723 -30.343
O 130.574 21.911 -31.166
O 130.749 23.536 -29.520
C 40.954 21.627 -25.143
O 40.743 20.895 -24.268
O 41.166 22.359 -26.018
C 217.941 19.764 -12.270
O 218.148 19.365 -13.339
O 217.734 20.163 -11.200
3933
Lattice="31.432 0 0 0 31.432 0 0 0 202.897" Properties=species:S:1:pos:R:3 timestep=36275000
O 57.285 10.970 -4.285
O 63.035 11.667 -5.279
O 89.383 22.332 -8.144
O 230.199 23.621 -17.311
O 74.252 29.546 -6.871
O 81.753 29.814 -16.672
O 235.383 15.832 -27.055
O 102.583 11.451 -9.836
O 56.964 19.677 -15.300
O 228.325 12.970 -1.416
O 238.224 23.579 -12.323
O 225.134 16.463 -8.754
O 56.289 21.561 -23.651
O 232.286 21.356 -2.521
O 91.444 29.047 -20.511
O 89.743 5.436 -6.904
O 93.315 12.519 -4.571
O 99.868 3.055 -1.785
O 48.263 29.467 -11.692
O 95.742 20.061 -29.597
O 62.434 14.637 -3.994
O 214.884 20.223 -8.323
O 49.791 30.488 -9.075
O 233.850 22.520 -7.266
O 232.658 4.785 -26.775
O 220.611 15.087 -5.610
O 91.684 25.502 -21.249
O 233.663 20.612 -14.169
O 97.545 29.910 -28.909
O 93.077 14.381 -9.217
O 72.115 26.225 -21.956
O 233.349 0.565 -24.722
O 230.123 12.669 -4.477
O 84.302 27.386 -22.924
O 74.187 31.410 -18.458
O 48.357 5.852 -16.422
O 228.219 30.103 -29.728
O 239.218 23.321 -30.028
O 130.581 11.805 -4.037
O 219.065 24.107 -17.475
O 87.227 7.775 -29.840
O 66.109 10.007 -1.341
O 50.763 0.687 -4.296
O 49.473 18.197 -27.007
O 73.318 30.918 -2.780
O 56.278 18.356 -10.201
O 84.753 17.422 -12.837
O 231.092 29.717 -6.907
O 100.674 23.489 -5.194
O 80.312 0.827 -28.413
O 225.018 20.941 -26.867
O 53.724 5.387 -0.090
O 218.968 5.346 -30.906
O 224.309 12.621 -2.661
O 216.788 5.965 -24.304
O 99.177 2.780 -13.236
O 46.523 17.118 -29.974
O 100.466 22.665 -1.276
O 56.837 10.778 -0.386
O 237.922 30.053 -3.572
O 65.197 29.926 -6.373
O 72.795 17.740 -5.936
O 101.155 29.076 -9.165
O 49.515 16.705 -4.048
O 57.416 0.233 -21.262
O 231.116 7.715 -15.192
O 54.771 7.782 -30.856
O 222.694 21.250 -1.804
O 90.062 5.987 -0.305
O 60.578 17.418 -19.532
O 64.990 12.790 -21.603
O 50.397 15.820 -19.831
O 242.019 0.781 -11.440
O 233.374 4.596 -22.463
O 50.068 0.705 -11.415
O 78.574 29.067 -3.020
O 56.609 23.881 -28.813
O 232.842 25.340 -28.487
O 63.803 6.408 -31.010
O 104.637 3.191 -3.677
O 100.363 10.478 -22.990
O 45.896 10.837 -9.014
O 86.583 23.686 -5.720
O 62.107 28.152 -13.261
O 62.657 12.538 -17.130
O 218.673 12.371 -1.047
O 62.157 4.456 -4.265
O 78.749 24.286 -3.731
O 99.690 23.011 -21.182
O 89.671 13.648 -15.227
O 80.995 25.543 -23.886
O 236.456 16.520 -7.010
O 94.957 15.680 -7.355
O 73.664 21.732 -25.665
O 216.287 20.681 -10.925
O 218.049 14.735 -26.045
O 51.749 20.765 -3.191
O 101.191 27.908 -30.026
O 68.364 24.257 -15.234
O 239.253 26.073 -13.437
O 99.059 31.026 -11.225
O 96.402 19.738 -2.548
O 229.054 18.000 -0.633
O 75.302 18.500 -5.109
O 239.947 23.588 -6.086
O 81.771 23.977 -5.571
O 221.844 5.655 -8.088
O 219.367 5.649 -28.102
O 53.882 16.587 -22.331
O 74.019 6.326 -5.736
O 100.056 23.461 -24.658
O 90.095 29.524 -23.120
O 82.769 8.638 -26.052
O 67.293 16.272 -24.755
O 94.811 5.034 -9.266
O 85.901 12.745 -6.555
O 42.422 3.973 -18.773
O 47.532 12.552 -29.514
O 44.688 16.048 -28.285
O 91.582 6.236 -24.691
O 71.412 2.902 -26.504
O 66.173 14.832 -28.001
O 90.519 9.718 -30.831
O 224.246 22.816 -14.881
O 60.250 18.583 -10.605
O 93.081 7.513 -15.349
O 51.087 5.883 -10.060
O 230.903 29.269 -31.113
O 42.424 19.965 -3.266
O 215.775 14.663 -24.199
O 225.212 29.860 -24.376
O 63.405 11.775 -12.979
O 53.373 23.605 -13.248
O 69.313 14.059 -15.963
O 228.581 5.927 -14.489
O 58.236 29.163 -21.150
O 78.155 12.581 -11.255
O 69.865 3.126 -6.326
O 76.180 6.121 -17.328
O 218.927 21.734 -7.800
O 73.963 10.302 -13.381
O 69.358 27.470 -6.499
O 89.663 25.103 -13.412
O 73.907 29.688 -14.434
O 68.890 29.236 -30.185
O 85.010 4.476 -24.286
O 225.619 26.559 -11.128
O 96.227 20.331 -9.316
O 239.784 7.731 -18.790
O 59.346 28.539 -8.343
O 61.179 3.409 -11.083
O 47.337 0.047 -13.201
O 232.505 14.143 -29.691
O 71.113 20.083 -22.490
O 86.708 9.821 -2.049
O 237.123 0.245 -1.453
O 93.103 15.492 -3.688
O 90.774 10.174 -18.352
O 90.165 7.493 -5.168
O 68.020 0.974 -27.342
O 98.917 5.060 -19.760
O 64.183 24.083 -24.024
O 85.381 26.614 -29.761
O 43.923 11.178 -22.392
O 234.811 20.104 -31.201
O 77.454 24.768 -6.696
O 90.217 28.713 -6.510
O 241.770 9.798 -4.182
O 236.949 6.201 -23.636
O 102.660 29.308 -0.537
O 235.644 8.109 -29.698
O 73.655 7.969 -11.972
O 45.672 27.126 -22.022
O 231.077 29.489 -19.115
O 90.739 8.986 -15.564
O 237.719 22.533 -9.695
O 65.160 8.038 -28.548
O 220.790 15.797 -19.848
O 99.178 20.935 -11.565
O 60.121 2.423 -28.241
O 81.953 13.502 -28.460
O 57.746 12.619 -26.854
O 48.641 7.469 -29.521
O 218.706 21.002 -13.283
O 57.916 6.340 -3.969
O 42.604 4.045 -13.057
O 65.284 13.090 -14.734
O 235.630 12.918 -9.392
O 56.447 16.030 -6.648
O 70.936 15.964 -23.421
O 57.986 26.537 -28.468
O 227.805 30.679 -25.036
O 105.123 25.887 -26.648
O 92.371 0.556 -17.749
O 84.999 17.446 -26.251
O 62.801 21.557 -3.011
O 46.651 0.469 -16.428
O 236.405 19.009 -7.607
O 72.753 2.910 -9.571
O 91.603 25.918 -29.963
O 237.165 8.294 -3.649
O 57.750 31.221 -29.664
O 95.032 31.135 -28.628
O 220.047 31.294 -30.086
O 224.089 19.486 -24.515
O 223.155 24.801 -16.887
O 93.252 17.331 -5.895
O 239.024 11.155 -15.061
O 226.909 18.304 -10.061
O 80.211 29.701 -29.499
O 233.023 4.160 -30.388
O 225.668 22.413 -18.710
O 65.378 10.594 -30.207
O 92.369 4.416 -17.674
O 100.754 23.180 -14.863
O 218.937 9.529 -24.937
O 232.324 19.744 -24.876
O 234.756 8.266 -23.979
O 41.495 6.256 -11.951
O 54.352 23.925 -8.412
O 42.703 17.633 -14.166
O 74.403 15.618 -14.419
O 78.703 8.598 -1.931
O 52.486 5.338 -18.561
O 46.570 15.976 -1.687
O 233.527 28.970 -17.528
O 90.607 23.128 -21.978
O 56.189 1.447 -0.399
O 86.346 7.212 -17.280
O 236.026 23.096 -29.673
O 45.071 10.418 -11.501
O 75.932 0.839 -20.676
O 78.561 18.897 -3.245
O 91.928 9.022 -25.658
O 218.704 7.145 -16.580
O 100.360 25.740 -22.306
O 233.855 19.098 -1.983
O 234.818 14.129 -0.138
O 77.694 29.345 -29.320
O 81.893 25.305 -2.957
O 79.402 10.456 -3.911
O 78.523 27.917 -14.619
O 60.648 28.148 -18.231
O 81.249 20.010 -17.803
O 57.297 4.043 -7.159
O 85.829 6.740 -26.764
O 56.587 0.114 -23.956
O 231.461 13.907 -10.425
O 41.600 20.614 -27.883
O 234.319 28.418 -13.862
O 49.294 13.814 -27.676
O 64.275 25.777 -30.768
O 238.517 14.382 -17.417
O 232.050 20.735 -5.910
O 216.665 3.740 -15.920
O 40.093 26.710 -24.677
O 71.956 26.066 -15.563
O 58.375 6.970 -11.809
O 217.291 5.733 -1.473
O 239.500 14.093 -26.743
O 223.903 2.034 -26.572
O 65.165 11.390 -18.345
O 43.348 25.156 -24.944
O 71.071 8.915 -25.371
O 230.849 21.534 -31.430
O 98.165 16.870 -17.166
O 72.814 15.607 -17.779
O 82.458 2.789 -12.771
O 85.065 2.824 -20.972
O 79.784 25.205 -19.281
O 85.479 13.718 -16.393
O 95.534 7.787 -28.772
O 238.518 27.260 -0.213
O 88.774 1.815 -9.632
O 71.507 26.917 -19.295
O 231.855 4.248 -2.575
O 82.606 17.758 -10.627
O 58.688 22.110 -11.833
O 70.972 13.645 -18.476
O 69.438 17.232 -3.676
O 71.087 0.689 -20.138
O 231.588 25.296 -2.581
O 93.003 14.883 -24.477
O 55.904 24.879 -15.079
O 68.612 9.247 -8.844
O 234.659 16.705 -16.845
O 53.800 30.521 -0.810
O 59.186 20.902 -9.232
O 40.498 19.040 -13.571
O 68.467 30.519 -13.523
O 105.154 6.597 -28.169
O 222.475 15.748 -22.024
O 63.914 18.916 -2.834
O 234.322 4.258 -19.690
O 225.589 2.227 -14.636
O 224.682 21.097 -21.128
O 106.859 14.397 -6.457
O 51.893 30.663 -25.972
O 105.068 26.260 -23.764
O 55.589 6.015 -22.792
O 79.847 26.384 -26.595
O 237.372 21.806 -24.676
O 42.860 28.910 -25.771
O 61.810 19.968 -12.697
O 81.512 7.435 -5.958
O 64.186 21.084 -15.777
O 42.563 17.689 -29.313
O 101.559 3.946 -20.410
O 83.296 22.517 -2.625
O 232.419 9.876 -24.146
O 49.252 22.119 -28.849
O 49.389 27.248 -5.157
O 230.709 11.237 -10.920
O 58.423 28.352 -11.757
O 60.071 9.966 -15.203
O 98.347 3.171 -29.546
O 72.064 9.798 -15.183
O 54.412 16.964 -11.737
O 65.866 23.053 -29.261
O 63.673 28.662 -22.004
O 74.908 7.483 -3.402
O 221.422 2.536 -17.023
O 241.024 15.015 -6.441
O 44.848 28.492 -17.161
O 51.093 29.527 -5.146
O 224.918 15.841 -12.940
O 82.887 18.689 -26.934
O 235.625 31.431 -19.694
O 43.565 16.413 -16.851
O 80.732 26.898 -12.891
O 105.749 8.992 -8.952
O 59.838 12.079 -17.590
O 90.595 2.967 -26.498
O 84.712 12.706 -26.653
O 72.364 18.868 -26.162
O 227.635 19.277 -7.560
O 102.092 6.199 -16.578
O 103.199 9.711 -7.814
O 69.977 17.873 -8.822
O 99.820 3.330 -8.298
O 50.771 15.972 -25.300
O 87.319 23.781 -22.964
O 103.356 1.543 -14.302
O 42.642 29.804 -15.648
O 226.665 3.047 -12.174
O 93.426 7.330 -8.233
O 229.525 19.268 -22.388
O 65.447 21.834 -9.567
O 83.722 13.136 -11.850
O 79.385 13.351 -26.902
O 93.302 25.453 -6.544
O 83.590 3.219 -15.171
O 96.461 2.669 -15.515
O 237.295 9.510 -24.822
O 220.866 9.841 -7.112
O 53.547 24.091 -2.527
O 217.994 26.926 -4.327
O 95.154 14.105 -18.788
O 217.350 16.208 -28.246
O 101.559 26.163 -0.536
O 219.655 7.993 -22.651
O 99.051 28.454 -22.214
O 47.500 28.683 -17.700
O 102.440 18.617 -13.977
O 83.941 8.915 -1.727
O 242.667 14.247 -30.547
O 228.651 3.612 -30.038
O 80.602 12.201 -15.696
O 101.882 13.949 -4.877
O 236.080 6.878 -6.457
O 88.227 25.144 -8.003
O 93.678 20.000 -17.414
O 40.774 7.321 -18.303
O 97.961 19.557 -15.339
O 42.096 14.095 -23.780
O 55.555 16.546 -1.605
O 44.986 14.089 -5.866
O 87.371 0.035 -26.591
O 44.378 26.747 -5.859
O 77.584 2.593 -13.090
O 57.677 10.419 -11.972
O 102.481 21.803 -6.627
O 219.492 23.331 -1.211
O 78.295 10.141 -20.091
O 106.016 14.839 -1.731
O 98.561 25.785 -27.246
O 78.796 11.218 -13.601
O 221.119 2.883 -19.891
O 219.801 5.458 -21.657
O 87.019 20.495 -10.802
O 53.126 1.771 -0.290
O 59.154 20.309 -23.796
O 87.886 9.282 -21.449
O 74.371 19.251 -22.793
O 42.216 13.119 -29.859
O 65.805 28.715 -26.459
O 62.982 25.887 -5.478
O 64.498 4.278 -13.734
O 90.525 16.862 -1.986
O 215.507 24.928 -6.279
O 97.657 13.576 -18.141
O 76.527 11.944 -19.101
O 50.100 21.791 -23.077
O 241.003 3.040 -17.485
O 228.359 20.524 -0.615
O 226.723 18.370 -24.148
O 225.294 28.589 -22.138
O 86.638 13.142 -3.984
O 92.074 4.178 -22.387
O 81.990 18.525 -24.288
O 56.836 9.550 -8.620
O 43.487 21.944 -10.136
O 235.773 18.082 -3.772
O 217.524 21.972 -4.814
O 45.530 2.380 -14.290
O 231.527 7.195 -18.550
O 80.343 22.433 -19.407
O 48.241 2.537 -4.667
O 56.160 2.168 -10.861
O 78.239 13.631 -20.764
O 58.069 7.350 -28.005
O 56.053 17.640 -20.581
O 221.788 5.725 -19.559
O 97.034 22.721 -20.119
O 77.307 7.440 -31.176
O 95.724 18.246 -16.593
O 82.870 10.744 -16.205
O 48.697 26.237 -18.722
O 79.984 19.735 -22.204
O 234.549 16.762 -9.652
O 96.279 0.188 -2.538
O 65.329 27.338 -5.393
O 80.388 7.639 -8.779
O 84.829 27.642 -1.606
O 62.307 13.593 -22.116
O 227.757 25.429 -9.750
O 73.196 15.140 -26.783
O 71.760 30.238 -6.069
O 41.917 30.263 -12.512
O 93.417 10.938 -2.137
O 76.443 3.816 -9.366
O 237.520 28.000 -24.802
O 68.967 31.392 -18.435
O 232.320 29.823 -26.260
O 51.075 29.214 -12.101
O 58.663 30.292 -27.276
O 225.930 24.308 -16.303
O 100.029 24.387 -8.524
O 86.888 21.940 -27.195
O 42.346 24.458 -11.535
O 93.111 20.970 -21.532
O 71.803 0.005 -27.061
O 95.754 14.238 -24.378
O 236.593 6.815 -9.343
O 57.148 1.098 -26.398
O 68.549 11.378 -30.717
O 228.157 15.863 -10.660
O 91.444 6.005 -3.198
O 42.245 13.536 -20.728
O 104.932 3.620 -27.946
O 87.805 15.474 -4.760
O 67.763 28.346 -21.896
O 52.649 10.575 -6.757
O 228.717 2.880 -5.181
O 80.258 29.020 -26.817
O 103.864 16.647 -26.028
O 235.131 25.990 -12.634
O 86.243 17.624 -6.862
O 92.348 12.661 -12.048
O 215.888 6.247 -16.691
O 56.958 17.553 -29.715
O 44.579 5.150 -27.751
O 99.197 1.739 -4.101
O 87.429 13.700 -26.035
O 43.217 7.023 -16.081
O 224.040 13.363 -6.188
O 103.443 4.672 -18.674
O 235.027 2.002 -10.701
O 227.839 13.033 -27.420
O 47.461 0.271 -8.539
O 66.545 4.827 -4.364
O 218.778 20.782 -2.674
O 85.654 20.022 -25.071
O 84.883 25.497 -7.131
O 101.445 7.646 -7.291
O 81.073 20.252 -11.386
O 68.273 14.015 -6.388
O 55.627 7.565 -11.594
O 50.887 28.390 -27.390
O 42.108 22.679 -0.553
O 90.726 19.088 -15.107
O 223.776 25.935 -22.413
O 74.831 10.877 -21.938
O 62.749 30.054 -24.744
O 101.408 6.161 -24.917
O 240.484 21.076 -22.707
O 102.096 8.437 -23.479
O 226.331 25.119 -20.049
O 61.608 14.903 -28.550
O 47.170 22.926 -3.707
O 235.129 31.076 -5.540
O 78.278 30.192 -25.204
O 90.528 1.300 -13.937
O 219.674 0.119 -5.185
O 55.981 25.553 -24.134
O 97.762 24.814 -7.023
O 59.463 6.509 -18.121
O 97.510 10.510 -7.361
O 96.755 8.987 -17.914
O 42.522 30.033 -21.935
O 77.105 26.462 -4.528
O 232.453 17.364 -27.247
O 61.228 30.043 -5.848
O 85.548 30.773 -17.829
O 50.097 16.093 -29.227
O 53.579 7.292 -19.919
O 86.520 28.514 -23.908
O 76.016 20.610 -13.552
O 83.046 21.321 -27.933
O 68.273 13.158 -19.392
O 84.801 17.440 -19.529
O 216.209 7.947 -20.308
O 44.453 11.932 -26.475
O 45.364 1.944 -18.596
O 54.737 26.861 -20.282
O 225.578 0.505 -1.074
O 41.736 28.143 -18.074
O 63.852 26.394 -27.381
O 226.346 18.830 -28.090
O 62.106 4.255 -27.603
O 236.484 15.469 -1.952
O 109.225 12.320 -28.270
O 100.998 30.853 -5.151
O 51.386 3.094 -10.956
O 105.460 10.431 -11.267
O 227.494 10.592 -31.217
O 81.655 13.439 -8.229
O 86.543 30.928 -15.207
O 79.898 15.851 -4.392
O 238.997 3.167 -21.266
O 226.667 9.014 -8.605
O 74.274 8.571 -9.306
O 80.186 8.976 -12.899
O 224.032 28.241 -13.987
O 92.702 16.112 -0.014
O 58.346 24.514 -3.994
O 76.220 12.324 -5.791
O 87.700 0.318 -22.580
O 229.596 14.971 -28.416
O 55.721 8.609 -17.556
O 231.886 11.284 -19.762
O 217.617 27.384 -24.375
O 89.218 3.950 -21.974
O 49.493 25.072 -11.026
O 58.221 24.521 -10.566
O 61.249 20.875 -5.344
O 104.015 19.063 -6.995
O 80.198 16.651 -19.088
O 82.472 8.285 -15.848
O 99.865 12.009 -20.008
O 65.895 25.578 -18.194
O 72.359 9.609 -3.511
O 239.827 6.312 -30.929
O 103.307 21.915 -1.853
O 48.173 25.845 -21.327
O 237.671 29.318 -7.262
O 62.700 26.899 -10.454
O 236.998 17.169 -24.463
O 43.719 6.929 -25.565
O 55.316 1.003 -28.697
O 97.991 17.097 -10.729
O 237.962 6.041 -15.704
O 66.246 8.570 -9.947
O 92.782 19.520 -3.489
O 74.360 13.491 -21.114
O 55.122 18.923 -26.107
O 65.399 12.179 -7.836
O 48.465 18.357 -21.268
O 70.790 25.285 -30.106
O 67.130 5.468 -17.135
O 52.628 13.916 -18.503
O 83.180 31.392 -1.856
O 223.562 30.710 -8.392
O 66.719 21.803 -7.189
O 41.297 11.983 -6.049
O 97.123 11.711 -0.493
O 94.531 0.320 -19.375
O 88.332 26.942 -5.633
O 44.624 14.180 -22.191
O 70.023 22.063 -9.588
O 97.717 7.178 -7.064
O 90.585 30.927 -4.900
O 40.148 20.091 -1.861
O 66.366 22.075 -20.263
O 218.245 21.192 -30.743
O 99.882 20.005 -21.083
O 47.631 23.759 -12.631
O 82.970 26.917 -26.599
O 236.138 26.038 -26.352
O 103.988 28.767 -20.846
O 233.399 11.455 -22.089
O 68.779 10.510 -1.980
O 87.666 21.012 -13.346
O 79.430 1.347 -24.642
O 42.704 4.836 -21.698
O 54.839 14.669 -30.801
O 85.223 4.703 -0.445
O 228.205 0.325 -21.997
O 221.350 3.180 -14.373
O 217.925 2.766 -6.155
O 81.014 1.504 -8.076
O 104.049 18.602 -23.830
O 219.451 23.733 -12.809
O 235.492 4.331 -7.915
O 93.844 25.081 -9.316
O 41.379 30.007 -8.393
O 88.707 15.440 -21.327
O 99.554 9.379 -19.297
O 40.406 8.163 -9.697
O 240.549 20.651 -2.934
O 101.752 3.378 -26.505
O 72.590 2.452 -24.049
O 225.423 10.904 -26.963
O 50.065 24.214 -24.783
O 91.987 0.974 -22.734
O 225.309 8.256 -19.259
O 52.043 11.996 -20.980
O 67.995 10.823 -4.852
O 89.244 16.620 -23.848
O 107.619 7.082 -2.045
O 227.279 7.563 -31.078
O 222.241 10.359 -30.955
O 65.447 10.071 -5.384
O 92.093 21.218 -28.538
O 221.115 22.357 -26.808
O 82.175 1.075 -10.405
O 54.211 13.373 -1.719
O 67.447 18.731 -19.949
O 62.622 11.045 -8.296
O 69.221 8.452 -23.331
O 46.824 21.727 -1.207
O 82.669 18.352 -3.357
O 74.702 7.443 -23.584
O 71.113 20.181 -5.250
O 69.914 2.955 -10.790
O 51.658 2.760 -15.682
O 237.149 23.985 -23.049
O 99.639 16.369 -27.343
O 81.613 17.517 -6.078
O 88.403 17.843 -18.037
O 74.406 12.410 -31.362
O 223.764 24.601 -8.618
O 64.063 17.919 -28.655
O 217.669 3.112 -3.406
O 220.166 26.099 -6.535
O 81.265 9.270 -29.972
O 227.852 24.205 -7.142
O 85.114 18.675 -17.027
O 101.526 16.655 -10.007
O 231.308 23.617 -4.764
O 96.305 0.092 -22.853
O 51.917 9.889 -3.938
O 50.770 12.923 -25.055
O 71.160 24.608 -17.693
O 100.937 20.694 -23.374
O 84.617 24.398 -22.021
O 61.639 13.559 -0.056
O 221.488 8.195 -20.665
O 241.998 0.896 -1.984
O 105.736 7.300 -31.235
O 62.776 29.482 -9.624
O 44.877 7.149 -3.014
O 233.008 15.952 -23.240
O 226.457 4.332 -5.974
O 53.608 1.931 -9.905
O 50.630 7.206 -25.541
O 91.435 3.603 -14.867
O 65.611 4.307 -0.954
O 103.500 2.782 -30.399
O 67.146 16.280 -8.167
O 93.043 26.279 -23.965
O 60.544 27.414 -6.299
O 86.203 27.631 -20.870
O 90.235 0.313 -27.429
O 236.563 30.205 -14.146
O 71.225 29.185 -3.245
O 239.828 24.929 -20.224
O 241.514 22.375 -16.546
O 241.738 3.946 -21.303
O 42.620 3.693 -10.323
O 40.702 24.899 -15.984
O 234.070 17.900 -24.867
O 60.973 0.948 -21.102
O 100.397 26.180 -12.336
O 54.228 19.630 -15.830
O 225.757 18.671 -5.077
O 100.283 19.347 -3.505
O 82.581 3.635 -27.014
O 59.561 7.561 -5.954
O 40.684 28.028 -27.102
O 53.058 8.491 -2.033
O 233.772 24.582 -5.435
O 64.703 2.151 -20.141
O 218.940 22.508 -28.359
O 44.965 13.207 -28.914
O 216.493 5.199 -19.293
O 68.979 16.340 -18.303
O 77.403 9.474 -6.849
O 67.311 27.972 -17.530
O 83.763 9.291 -18.510
O 97.519 16.790 -19.700
O 42.193 0.544 -28.411
O 93.630 2.466 -16.162
O 79.995 20.000 -26.837
O 223.187 9.975 -28.334
O 54.596 3.533 -29.434
O 45.511 21.160 -13.082
O 218.153 16.627 -21.846
O 43.037 3.012 -28.146
O 99.544 0.747 -29.734
O 57.419 9.299 -14.968
O 223.101 25.315 -31.160
O 101.005 18.476 -26.247
O 72.173 22.771 -15.559
O 66.976 18.736 -6.943
O 69.881 26.987 -23.329
O 57.572 8.305 -30.489
O 53.460 22.393 -4.774
O 44.774 1.508 -31.122
O 71.175 6.816 -17.877
O 79.868 22.000 -14.303
O 229.205 16.152 -25.833
O 57.977 28.148 -1.646
O 94.967 15.265 -10.851
O 97.742 11.870 -9.902
O 233.188 15.382 -3.397
O 43.639 12.422 -0.641
O 235.034 22.605 -0.744
O 47.834 23.381 -30.841
O 231.191 13.493 -26.946
O 76.588 4.791 -30.522
O 101.840 16.380 -16.096
O 238.843 30.535 -28.611
O 60.555 11.504 -13.001
O 47.165 14.471 -25.606
O 74.571 5.778 -9.239
O 232.459 2.346 -19.884
O 240.974 2.164 -31.201
O 59.419 14.609 -1.455
O 73.032 9.590 -23.577
O 71.969 19.472 -2.450
O 222.398 24.841 -26.721
O 52.400 25.299 -27.875
O 227.576 13.516 -4.506
O 43.530 13.001 -8.127
O 83.741 22.064 -23.852
O 99.176 11.207 -12.568
O 227.599 10.347 -4.183
O 74.784 29.812 -0.770
O 236.379 21.093 -15.277
O 40.284 6.862 -24.287
O 100.421 18.284 -29.745
O 66.778 26.389 -7.354
O 224.239 4.757 -18.236
O 239.613 17.547 -25.846
O 84.072 22.342 -5.232
O 222.662 16.083 -9.574
O 63.964 4.227 -25.568
O 233.547 10.264 -11.279
O 54.898 28.927 -4.828
O 87.810 25.644 -27.982
O 51.733 3.730 -25.331
O 66.656 5.648 -23.253
O 86.170 20.238 -21.577
O 239.458 1.559 -12.699
O 86.805 0.019 -30.879
O 84.054 28.567 -17.612
O 95.817 26.990 -14.561
O 70.604 0.374 -12.254
O 78.701 8.878 -29.311
O 217.783 21.782 -16.973
O 105.183 14.271 -23.145
O 100.351 11.160 -3.928
O 221.686 31.228 -17.091
O 103.883 17.451 -2.898
O 228.479 5.020 -8.291
O 47.964 21.193 -26.384
O 96.736 14.521 -27.445
O 49.579 9.110 -4.984
O 223.793 4.085 -6.871
O 46.650 1.762 -22.720
O 54.186 24.730 -29.908
O 95.889 18.212 -4.918
O 61.524 29.520 -29.647
O 64.630 10.400 -15.190
O 90.925 26.110 -8.711
O 218.060 28.714 -6.804
O 90.132 24.011 -28.231
O 93.284 9.990 -7.593
O 228.291 9.573 -12.215
O 65.661 3.218 -22.829
O 51.379 14.301 -22.591
O 53.510 25.921 -25.460
O 235.491 26.123 -17.602
O 84.718 14.723 -22.200
O 81.007 21.685 -8.830
O 68.552 7.589 -19.989
O 75.220 3.426 -1.173
O 53.582 18.588 -1.355
O 41.260 23.309 -13.765
O 224.131 1.023 -29.037
O 93.815 8.865 -30.870
O 103.882 15.623 -5.831
O 72.313 10.205 -0.612
O 100.483 13.791 -26.291
O 53.930 29.034 -18.942
O 78.750 21.754 -30.662
O 99.426 15.156 -0.982
O 227.706 5.139 -23.134
O 226.518 28.471 -27.539
O 73.154 26.117 -29.066
O 60.199 22.809 -7.503
O 100.986 18.446 -0.919
O 43.571 30.818 -6.530
O 75.968 15.397 -2.028
O 240.911 29.431 -12.149
O 102.633 27.416 -22.797
O 78.079 18.497 -19.443
O 98.272 21.808 -25.852
O 228.125 12.704 -14.023
O 234.313 7.303 -19.581
O 60.258 6.177 -9.918
O 216.581 8.245 -2.052
O 82.270 25.894 -18.189
O 106.714 9.064 -6.259
O 43.850 30.182 -10.159
O 58.282 11.914 -9.087
O 84.084 15.040 -5.888
O 242.422 25.053 -6.412
O 90.670 7.352 -8.815
O 76.865 27.310 -27.472
O 47.684 6.109 -21.801
O 45.617 12.961 -19.433
O 41.156 10.671 -10.603
O 42.963 21.972 -7.524
O 70.935 2.190 -14.916
O 238.887 2.561 -1.487
O 221.606 1.581 -12.049
O 57.580 5.439 -25.487
O 60.380 18.635 -1.896
O 219.032 18.928 -8.953
O 103.568 5.742 -7.046
O 69.183 4.123 -24.951
O 43.630 6.556 -7.184
O 43.172 10.189 -2.324
O 68.182 24.032 -6.899
O 58.219 25.874 -6.254
O 54.498 22.538 -20.322
O 70.399 4.393 -0.777
O 64.442 7.223 -22.679
O 59.965 21.843 -14.362
O 223.211 7.623 -17.386
O 74.308 4.305 -16.314
O 50.292 15.391 -10.456
O 231.687 27.205 -7.492
O 63.433 21.867 -22.672
O 85.508 30.749 -21.227
O 95.852 23.374 -16.134
O 41.690 15.142 -8.792
O 75.106 15.278 -24.894
O 53.392 19.193 -13.166
O 224.184 27.069 -20.015
O 62.960 18.775 -16.934
O 225.266 5.876 -15.803
O 78.225 23.529 -25.923
O 231.288 15.098 -5.339
O 60.621 1.895 -6.310
O 220.528 28.300 -11.465
O 101.236 27.113 -17.725
O 240.079 10.980 -10.678
O 78.267 4.513 -11.423
O 97.528 20.259 -6.488
O 100.197 1.993 -10.861
O 52.786 10.136 -26.035
O 67.350 11.114 -26.780
O 52.092 30.691 -7.417
O 42.409 22.327 -16.814
O 231.453 22.112 -15.204
O 99.312 4.675 -27.183
O 49.874 16.904 -22.870
O 44.967 30.841 -14.354
O 230.961 3.452 -28.606
O 45.760 21.674 -16.697
O 83.826 6.904 -30.873
O 76.226 17.135 -11.712
O 62.397 0.305 -7.687
O 235.211 20.221 -22.791
O 68.713 17.505 -0.863
O 76.719 28.889 -5.678
O 66.321 13.232 -12.205
O 106.672 17.988 -22.718
O 88.276 27.589 -14.039
O 88.085 26.892 -17.260
O 40.384 18.252 -9.556
O 94.126 28.603 -17.925
O 58.395 28.355 -15.128
O 230.557 14.327 -24.181
O 231.810 19.810 -16.228
O 229.383 9.020 -5.817
O 74.318 0.068 -22.927
O 240.967 12.093 -22.186
O 99.654 6.220 -11.678
O 75.098 24.749 -13.097
O 57.693 12.969 -13.177
O 97.103 21.159 -17.400
O 224.881 10.507 -0.600
O 218.481 22.624 -10.235
O 80.501 6.065 -3.828
O 73.896 11.895 -18.475
O 91.334 25.532 -1.180
O 231.657 30.552 -15.350
O 75.422 20.001 -10.353
O 91.629 25.776 -18.508
O 50.007 1.473 -25.648
O 62.811 3.977 -17.899
O 42.612 25.652 -7.981
O 231.563 8.408 -29.076
O 225.181 2.360 -8.373
O 49.413 11.625 -31.351
O 56.451 25.655 -1.038
O 226.438 20.893 -2.724
O 80.413 7.531 -27.133
O 97.747 25.027 -24.660
O 240.389 5.115 -25.179
O 51.229 26.712 -10.166
O 76.223 17.544 -26.129
O 221.767 29.746 -5.352
O 222.607 1.456 -9.513
O 86.584 29.087 -27.938
O 65.234 23.517 -12.815
O 74.720 22.073 -23.127
O 106.818 13.737 -27.990
O 85.669 22.353 -29.565
O 85.871 21.524 -16.974
O 71.385 1.154 -7.255
O 69.364 24.553 -27.795
O 106.341 27.438 -20.991
O 73.191 4.329 -2.800
O 89.545 12.797 -3.472
O 64.093 7.955 -4.579
O 98.429 17.256 -4.338
O 220.314 8.796 -27.442
O 54.904 18.872 -23.204
O 42.154 17.416 -7.470
O 48.791 25.853 -8.189
O 80.294 21.687 -24.130
O 55.712 7.185 -26.365
O 80.769 20.050 -4.314
O 236.597 14.436 -29.377
O 48.641 3.501 -14.746
O 217.354 12.568 -28.737
O 227.103 15.491 -2.430
O 48.228 3.916 -27.908
O 220.366 26.705 -20.894
O 66.732 27.532 -9.842
O 42.698 27.765 -13.197
O 51.010 28.623 -0.542
O 233.512 6.508 -29.490
O 71.485 18.561 -11.112
O 43.890 30.980 -24.207
O 241.888 7.870 -2.224
O 87.240 2.350 -1.430
O 91.023 11.641 -20.558
O 93.342 3.912 -29.098
O 104.065 12.144 -6.252
O 240.457 25.687 -23.213
O 85.077 22.608 -14.434
O 94.048 24.706 -18.294
O 49.944 18.988 -7.211
O 53.407 0.027 -13.329
O 232.149 10.681 -30.725
O 58.308 21.311 -17.118
O 48.293 14.444 -21.107
O 75.885 18.343 -17.888
O 66.727 30.634 -30.178
O 219.825 28.163 -1.048
O 107.252 17.543 -25.499
O 218.189 0.295 -2.581
O 46.601 31.336 -29.643
O 99.818 30.694 -18.872
O 222.317 6.288 -14.849
O 43.221 6.696 -0.231
O 218.365 28.790 -17.638
O 107.164 12.158 -2.171
O 90.668 22.717 -1.377
O 109.147 17.634 -3.696
O 70.190 1.509 -22.647
O 93.758 3.262 -19.734
O 83.281 25.013 -13.476
O 233.864 28.651 -22.808
O 40.330 24.075 -21.390
O 227.259 6.784 -2.716
O 240.422 12.719 -31.356
O 89.211 20.474 -29.208
O 64.331 27.119 -19.768
O 221.968 6.496 -24.685
O 87.305 17.721 -20.545
O 60.597 1.361 -14.136
O 233.616 12.990 -11.624
O 65.208 9.094 -12.568
O 97.507 2.206 -7.034
O 90.361 15.334 -5.726
O 106.074 27.269 -15.624
O 46.948 18.584 -27.802
O 94.172 26.896 -30.055
O 72.035 11.316 -9.468
O 40.614 1.927 -16.662
O 81.037 10.287 -20.384
O 67.662 1.787 -21.570
O 68.251 5.726 -2.008
O 238.614 19.847 -14.434
O 88.400 6.469 -26.252
O 63.204 6.984 -10.328
O 219.201 4.784 -18.226
O 51.234 20.810 -30.548
O 240.518 31.059 -3.771
O 102.465 3.412 -7.497
O 59.829 16.576 -5.423
O 237.916 20.990 -22.073
O 231.996 27.641 -15.554
O 94.205 18.132 -1.172
O 103.534 19.452 -26.394
O 227.727 28.979 -14.796
O 54.233 12.554 -26.139
O 232.933 22.950 -27.436
O 237.447 23.285 -19.678
O 230.033 7.319 -20.858
O 47.514 11.735 -21.402
O 71.487 12.986 -14.395
O 89.665 3.008 -2.960
O 103.212 26.584 -2.847
O 57.576 1.683 -8.734
O 66.785 4.355 -26.434
O 91.648 30.199 -14.097
O 75.214 14.289 -11.986
O 51.473 11.466 -18.086
O 77.408 -0.001 -4.192
O 80.524 22.692 -2.272
O 80.379 17.389 -28.264
O 77.926 22.391 -18.283
O 54.685 31.076 -20.801
O 56.184 29.767 -14.420
O 48.336 29.526 -28.101
O 100.499 16.886 -20.760
O 60.273 27.701 -0.232
O 77.942 14.280 -0.110
O 94.416 6.076 -23.845
O 76.642 30.062 -14.685
O 225.935 12.173 -17.644
O 230.339 12.843 -30.794
O 53.249 21.374 -22.480
O 100.218 13.791 -12.396
O 40.511 9.379 -27.129
O 91.889 12.413 -24.457
O 234.236 29.447 -28.384
O 57.672 14.076 -22.638
O 91.726 16.299 -28.710
O 73.522 29.445 -27.977
O 98.944 28.557 -2.120
O 242.140 7.905 -20.466
O 63.073 4.415 -22.639
O 71.142 15.623 -5.129
O 84.964 5.828 -2.962
O 91.872 19.086 -26.512
O 61.090 30.812 -17.794
O 239.172 28.722 -14.139
O 235.131 24.042 -21.286
O 42.360 9.917 -29.801
O 42.894 21.040 -13.922
O 87.494 20.887 -6.537
O 86.521 9.619 -18.417
O 86.557 12.498 -1.028
O 219.298 4.945 -8.806
O 217.933 30.296 -0.155
O 232.087 26.825 -26.092
O 96.863 1.525 -27.748
O 58.315 4.121 -11.416
O 89.041 18.381 -8.472
O 221.202 29.607 -28.583
O 94.667 28.240 -25.262
O 102.670 25.054 -16.501
O 68.316 3.712 -8.540
O 224.378 30.801 -13.216
O 221.918 29.505 -1.902
O 103.945 28.248 -9.720
O 72.016 18.040 -19.285
O 52.718 9.247 -16.944
O 220.432 2.713 -5.200
O 56.214 30.834 -8.148
O 235.540 4.543 -28.035
O 91.412 2.817 -30.757
O 217.970 11.716 -13.704
O 76.239 21.747 -26.632
O 48.812 11.798 -6.647
O 46.611 16.414 -4.938
O 41.517 2.951 -24.179
O 220.023 15.777 -1.740
O 64.961 0.637 -23.913
O 68.237 22.518 -24.746
O 94.288 9.000 -21.465
O 64.666 20.733 -12.998
O 60.074 25.969 -24.047
O 230.460 17.611 -29.453
O 77.986 5.127 -23.492
O 59.591 24.311 -17.781
O 235.573 12.041 -4.246
O 73.152 24.596 -2.835
O 54.951 12.395 -19.203
O 238.806 18.925 -1.538
O 229.354 31.350 -0.679
O 65.293 0.888 -4.585
O 70.275 9.581 -29.851
O 76.894 19.928 -7.735
O 92.565 25.857 -11.827
O 81.814 11.800 -2.844
O 228.444 23.670 -15.319
O 91.891 16.033 -18.327
O 233.559 14.257 -16.882
O 68.552 2.638 -2.150
O 103.842 11.415 -15.819
O 45.964 17.665 -24.635
O 227.567 22.933 -24.021
O 92.618 6.399 -30.345
O 236.325 26.251 -20.417
O 241.295 21.575 -20.172
O 65.552 30.040 -9.054
O 84.807 8.582 -28.850
O 99.208 7.450 -23.550
O 82.814 9.354 -4.234
O 219.636 6.366 -14.061
O 92.971 2.206 -6.002
O 241.149 6.125 -22.689
O 86.239 7.074 -9.323
O 103.462 15.251 -18.887
O 218.785 17.760 -18.707
O 103.281 9.487 -4.554
O 77.368 3.653 -15.515
O 84.063 18.250 -0.838
O 53.156 1.371 -3.055
O 96.626 9.113 -4.801
O 100.834 23.185 -12.095
O 221.677 26.962 -17.799
O 229.824 14.279 -12.503
O 242.551 11.415 -29.545
O 239.101 31.116 -31.149
O 46.352 27.265 -2.601
O 103.621 15.892 -30.066
O 236.683 26.051 -2.154
O 77.343 13.503 -16.944
O 76.656 23.709 -21.873
O 73.168 17.176 -21.656
O 231.937 17.231 -1.681
O 43.274 27.464 -23.538
O 84.362 10.466 -6.248
O 75.344 1.438 -12.111
O 242.779 23.162 -2.642
O 44.677 11.104 -16.648
O 217.770 30.275 -15.097
O 94.481 22.726 -11.136
O 75.725 22.552 -11.588
O 40.496 30.421 -0.484
O 64.954 19.214 -8.903
O 102.682 15.547 -1.295
O 94.522 25.604 -20.841
O 222.573 8.727 -26.010
O 221.828 18.590 -9.076
O 230.313 4.264 -9.908
O 69.394 8.077 -1.037
O 105.725 25.811 -10.201
O 92.183 31.091 -2.702
O 233.546 14.184 -26.076
O 70.555 29.178 -8.410
O 226.274 25.285 -4.770
O 103.972 23.130 -30.840
O 231.952 1.054 -17.421
O 80.904 5.505 -23.052
O 238.223 6.000 -4.915
O 221.986 26.196 -10.583
O 233.510 2.939 -12.707
O 235.747 7.181 -17.038
O 52.732 7.870 -14.461
O 67.595 19.758 -24.044
O 61.577 0.886 -30.024
O 234.496 30.683 -0.761
O 222.865 4.341 -21.621
O 232.060 0.746 -28.809
O 44.444 21.881 -31.022
O 42.402 0.080 -17.601
O 240.036 2.951 -3.988
O 104.197 7.300 -18.839
O 64.297 15.461 -30.132
O 225.661 24.233 -30.643
O 72.747 27.983 -12.367
O 88.310 26.619 -11.058
O 56.443 8.920 -5.869
O 79.256 30.149 -11.214
O 229.798 9.909 -8.765
O 229.870 21.336 -20.660
O 95.915 16.490 -21.914
O 41.601 27.491 -9.876
O 47.930 17.755 -13.381
O 217.764 12.825 -19.814
O 93.485 10.835 -29.049
O 65.632 6.328 -12.100
O 96.854 24.991 -1.068
O 59.624 5.723 -23.657
O 59.858 3.912 -8.280
O 105.857 1.693 -15.130
O 86.726 23.727 -0.542
O 239.983 9.655 -24.328
O 219.770 0.793 -21.177
O 71.108 26.397 -3.347
O 66.848 23.763 -2.712
O 97.710 16.311 -25.441
O 240.708 19.213 -10.394
O 106.796 19.640 -31.183
O 88.686 8.359 -0.658
O 237.619 14.821 -9.043
O 215.172 17.600 -8.024
O 48.546 14.285 -3.365
O 241.421 28.238 -3.718
O 72.457 22.614 -18.848
O 229.125 17.352 -3.465
O 66.964 7.080 -26.384
O 52.647 16.929 -9.783
O 80.070 14.381 -17.348
O 242.452 1.110 -8.635
O 224.471 10.046 -23.466
O 93.892 12.560 -16.724
O 78.898 25.464 -1.165
O 104.809 17.464 -15.713
O 72.159 4.162 -13.188
O 234.682 20.987 -28.276
O 220.131 11.694 -28.023
O 238.261 12.840 -21.634
O 96.949 17.145 -8.105
O 102.393 20.232 -8.893
O 86.728 4.059 -8.692
O 83.181 8.730 -23.332
O 60.329 7.598 -13.610
O 93.395 18.996 -30.273
O 64.888 25.551 -2.095
O 45.854 7.849 -11.841
O 101.369 3.355 -14.706
O 64.812 17.693 -21.021
O 77.961 11.588 -0.357
O 242.065 14.855 -25.393
O 92.702 4.127 -1.564
O 74.920 14.479 -4.774
O 72.621 29.883 -21.647
O 52.373 8.464 -9.730
O 99.623 14.863 -10.034
O 74.942 10.136 -4.351
O 76.338 1.947 -5.961
O 237.070 10.704 -9.153
O 96.600 23.522 -27.359
O 42.133 16.369 -0.277
O 45.873 1.829 -27.942
O 232.514 30.699 -21.324
O 97.810 4.757 -0.824
O 68.928 24.758 -4.230
O 235.243 28.209 -6.457
O 69.110 6.290 -27.957
O 89.958 10.123 -24.148
O 76.903 31.180 -10.372
O 239.836 4.513 -9.322
O 78.865 16.391 -15.681
O 69.915 19.222 -17.407
O 49.540 25.044 -27.786
O 218.557 3.872 -13.680
O 49.204 12.481 -14.879
O 74.751 8.405 -20.740
O 229.802 1.705 -20.206
O 50.124 24.632 -0.503
O 102.022 9.959 -12.668
O 238.467 4.770 -27.125
O 94.815 22.116 -23.287
O 83.449 19.672 -22.392
O 47.645 24.219 -6.486
O 233.275 28.239 -0.540
O 40.847 5.375 -9.008
O 216.896 8.652 -22.903
O 99.528 20.355 -27.797
O 90.404 4.607 -28.892
O 85.641 27.286 -26.125
O 48.669 11.129 -9.264
O 236.847 10.086 -31.121
O 45.736 29.742 -8.008
O 238.159 12.705 -4.283
O 231.028 7.188 -2.115
O 40.462 22.646 -5.295
O 87.695 4.978 -1.407
O 97.752 21.857 -29.363
O 89.553 14.277 -1.089
O 55.076 8.699 -23.944
O 221.438 23.169 -7.883
O 67.932 21.319 -11.385
O 96.742 26.079 -9.157
O 59.068 20.163 -3.983
O 66.510 25.751 -27.947
O 234.926 26.714 -4.211
O 104.417 24.960 -12.443
O 96.479 29.157 -12.463
O 98.182 27.668 -10.909
O 72.259 15.641 -30.096
O 46.024 20.797 -8.851
O 55.263 10.508 -10.512
O 225.555 4.099 -21.575
O 242.282 30.483 -24.332
O 241.057 24.204 -26.635
O 93.958 11.408 -22.657
O 54.045 21.701 -17.566
O 233.380 3.450 -16.838
O 90.839 23.400 -16.257
O 57.716 18.459 -6.592
O 93.133 3.811 -25.870
O 217.337 1.241 -13.660
O 222.562 3.906 -4.324
O 56.767 5.874 -17.080
O 81.842 27.129 -10.232
O 90.874 31.148 -30.010
O 228.394 14.377 -21.829
O 236.606 23.027 -7.167
O 66.965 9.022 -24.515
O 218.346 13.857 -9.233
O 104.232 23.488 -23.332
O 221.619 30.371 -12.636
O 226.553 24.451 -12.768
O 220.170 26.444 -23.761
O 89.519 12.928 -27.889
O 220.342 11.630 -18.946
O 46.001 23.070 -10.660
O 104.236 13.372 -13.920
O 62.517 8.512 -16.140
O 235.774 23.068 -13.418
O 235.256 11.460 -1.338
O 50.767 13.107 -5.239
O 81.326 27.884 -4.499
O 238.812 13.445 -6.938
O 223.220 17.538 -15.807
O 103.817 10.868 -26.175
O 226.990 20.718 -22.565
O 219.435 13.154 -15.604
O 53.190 12.392 -28.648
O 59.203 24.253 -21.623
O 234.607 5.326 -12.149
O 221.486 18.228 -17.765
O 51.662 10.538 -29.933
O 55.377 5.732 -8.775
O 54.151 28.685 -25.405
O 100.019 9.502 -6.072
O 102.488 16.819 -22.417
O 90.482 4.056 -9.679
O 74.877 1.589 -16.150
O 234.770 21.740 -3.987
O 80.085 8.154 -22.097
O 49.127 15.687 -17.423
O 238.320 11.574 -17.966
O 100.396 20.452 -15.287
O 238.246 3.225 -17.408
O 239.751 31.303 -7.719
O 42.722 23.481 -22.744
O 46.044 0.931 -10.873
O 101.465 11.386 -1.416
O 48.893 28.005 -2.112
O 101.090 10.998 -15.151
O 232.336 21.869 -19.446
O 230.258 22.939 -24.833
O 225.092 24.955 -26.657
O 48.642 17.638 -10.579
O 95.125 11.813 -12.197
O 91.265 18.612 -17.832
O 84.984 4.506 -28.146
O 223.455 0.568 -24.310
O 48.428 22.877 -19.256
O 235.729 9.722 -16.432
O 231.333 2.580 -24.828
O 83.359 14.173 -1.464
O 84.400 0.938 -5.849
O 231.195 13.621 -18.536
O 95.365 23.572 -5.029
O 53.979 3.606 -6.198
O 50.062 19.043 -16.791
O 230.229 22.505 -27.558
O 233.933 1.508 -30.820
O 54.403 3.965 -19.965
O 76.927 19.392 -24.313
O 89.931 26.537 -26.282
O 74.141 9.217 -18.239
O 101.438 23.973 -30.489
O 219.834 14.919 -29.761
O 92.297 4.365 -7.675
O 82.835 23.550 -19.346
O 66.564 2.015 -17.552
O 228.761 31.261 -18.160
O 51.158 4.544 -4.077
O 227.792 4.408 -16.535
O 47.308 8.377 -4.061
O 41.598 10.536 -14.668
O 62.001 17.546 -4.184
O 45.272 3.266 -9.435
O 236.511 28.365 -16.951
O 229.720 23.776 -30.070
O 88.693 2.331 -24.111
O 219.185 2.584 -10.934
O 220.754 20.317 -22.432
O 68.280 7.895 -30.075
O 97.116 28.990 -19.140
O 224.939 21.651 -30.492
O 226.384 11.684 -11.736
O 101.195 9.934 -26.177
O 217.029 17.405 -24.070
O 81.265 10.124 -9.650
O 43.517 24.955 -2.541
O 52.832 27.285 -4.816
O 40.098 21.126 -9.930
O 229.669 29.124 -11.212
O 220.220 28.807 -8.681
O 71.325 25.885 -6.216
O 97.549 14.945 -30.081
O 43.984 9.257 -6.973
O 237.469 20.472 -30.785
O 229.502 26.178 -28.495
O 47.472 3.186 -20.516
O 226.698 16.844 -26.338
O 47.418 15.887 -23.292
O 73.091 7.398 -15.998
O 218.773 19.645 -6.090
O 66.927 21.552 -4.504
O 242.816 3.514 -2.545
O 219.707 25.841 -2.406
O 87.323 5.707 -4.122
O 229.307 23.844 -19.919
O 226.750 28.600 -12.198
O 242.213 25.248 -10.727
O 240.484 14.463 -10.187
O 230.548 24.557 -7.293
O 95.482 0.115 -11.513
O 45.450 28.284 -14.275
O 96.498 4.757 -6.752
O 224.003 15.320 -1.802
O 52.842 27.228 -12.494
O 87.052 15.935 -27.467
O 90.197 10.138 -2.970
O 44.209 20.459 -26.458
O 238.322 27.030 -8.856
O 227.873 17.060 -21.683
O 91.166 28.218 -28.370
O 60.602 25.075 -13.628
O 242.744 29.449 -16.610
O 106.469 4.237 -14.387
O 225.094 13.528 -28.558
O 58.554 25.541 -15.395
O 220.611 13.860 -8.044
O 237.770 4.434 -31.148
O 85.482 15.688 -8.612
O 70.375 24.638 -8.554
O 73.228 18.941 -8.975
O 81.942 0.291 -4.654
O 99.572 21.204 -8.362
O 74.705 20.061 -2.978
O 84.224 5.481 -10.641
O 239.441 7.322 -9.129
O 68.608 27.079 -19.638
O 86.185 24.686 -19.702
O 99.953 1.820 -23.372
O 46.502 11.671 -5.174
O 63.344 24.909 -17.385
O 235.354 22.199 -10.998
O 91.314 10.767 -10.022
O 65.707 15.941 -17.072
O 105.108 6.194 -2.979
O 66.680 13.497 -16.973
O 221.618 18.486 -0.317
O 59.224 22.783 -24.566
O 72.550 3.995 -28.566
O 227.718 1.669 -16.301
O 47.016 3.759 -12.597
O 231.464 10.693 -26.627
O 85.365 1.965 -26.910
O 68.127 4.227 -14.568
O 50.228 10.870 -27.026
O 61.619 23.089 -16.024
O 91.358 26.360 -15.833
O 241.024 16.659 -8.355
O 83.892 19.530 -6.154
O 95.413 6.599 -19.444
O 240.353 9.096 -26.930
O 223.812 27.956 -9.895
O 57.758 29.625 -6.476
O 86.901 1.719 -4.270
O 93.134 6.495 -5.212
O 93.794 14.434 -28.189
O 104.739 22.072 -25.808
O 222.867 14.741 -16.851
O 91.945 23.918 -25.876
O 229.348 1.576 -9.461
O 43.087 12.949 -10.829
O 235.561 18.024 -12.805
O 68.363 30.078 -3.114
O 225.201 15.506 -30.727
O 83.768 2.391 -0.664
O 103.216 19.835 -4.362
O 79.214 22.876 -21.854
O 61.306 17.808 -14.467
O 46.649 28.006 -5.099
O 42.531 9.127 -12.362
O 235.082 9.430 -21.375
O 85.937 24.330 -25.614
O 230.845 17.923 -20.552
O 55.830 29.863 -10.592
O 51.970 6.977 -5.098
O 64.956 3.923 -16.362
O 104.885 2.394 -17.599
O 98.433 27.456 -30.699
O 57.533 27.976 -4.327
O 51.783 5.621 -15.816
O 69.248 8.692 -5.978
O 84.561 30.178 -29.618
O 232.123 14.809 -7.855
O 95.541 13.208 -6.362
O 77.067 0.597 -30.426
O 94.953 18.692 -20.664
O 50.501 18.367 -13.919
O 81.514 5.192 -9.716
O 94.532 31.369 -26.173
O 83.670 7.441 -20.734
O 68.355 28.677 -27.396
O 87.700 2.437 -20.128
O 229.555 6.592 -26.369
O 103.798 30.970 -27.110
O 60.481 21.155 -31.151
O 222.069 22.889 -31.289
O 85.501 28.501 -13.925
O 80.056 29.864 -19.416
O 51.197 26.067 -2.853
O 88.968 21.019 -22.198
O 221.022 30.471 -23.677
O 50.193 20.126 -11.232
O 226.534 7.395 -21.534
O 44.834 5.475 -12.982
O 64.622 20.681 -0.094
O 97.902 28.558 -15.625
O 75.696 25.343 -2.460
O 232.518 27.849 -3.292
O 53.967 1.866 -24.294
O 236.205 0.028 -28.605
O 67.129 27.686 -13.682
O 68.294 6.287 -7.814
O 50.828 30.976 -22.120
O 104.446 23.467 -5.681
O 73.684 16.671 -10.445
O 81.033 13.037 -10.962
O 72.552 2.519 -18.111
O 233.417 24.360 -14.308
O 105.934 8.869 -25.938
O 235.114 26.864 -28.705
O 217.059 24.866 -1.531
O 87.062 3.748 -25.840
O 79.638 24.184 -8.426
O 100.497 27.702 -27.470
O 91.544 16.593 -22.050
O 221.054 12.958 -31.122
O 104.918 11.725 -23.712
O 53.747 14.613 -13.121
O 48.142 8.576 -15.438
O 50.860 14.220 -13.060
O 85.164 22.629 -10.314
O 82.493 3.486 -6.464
O 76.131 12.604 -25.809
O 87.096 11.443 -16.498
O 238.856 29.896 -21.796
O 229.820 25.647 -25.908
O 53.035 24.778 -19.841
O 70.406 15.142 -7.998
O 60.106 30.277 -24.573
O 56.291 6.961 -20.233
O 72.760 28.596 -30.397
O 226.499 23.717 -1.879
O 47.764 26.785 -26.721
O 42.664 19.697 -11.570
O 49.063 5.196 -24.375
O 231.133 30.960 -9.741
O 44.948 20.289 -5.895
O 227.538 9.732 -17.805
O 79.724 19.753 -7.092
O 104.532 5.746 -15.806
O 86.504 25.113 -13.950
O 53.074 21.742 -9.705
O 218.060 10.709 -8.317
O 102.409 12.385 -22.680
O 224.838 7.694 -1.286
O 228.260 29.667 -6.895
O 48.401 5.280 -5.310
O 93.726 17.061 -14.505
O 241.991 12.989 -13.905
O 97.515 20.573 -23.669
O 42.543 4.172 -30.519
O 62.870 9.799 -23.607
O 242.241 21.469 -12.738
O 56.639 15.419 -12.175
O 232.386 3.805 -8.095
O 74.205 18.388 -14.156
O 97.119 17.700 -29.827
O 238.935 15.690 -22.255
O 49.581 5.233 -1.519
O 227.692 3.580 -19.603
O 82.197 1.277 -25.512
O 84.212 13.407 -8.935
O 76.754 1.090 -1.707
O 40.907 11.402 -3.260
O 66.669 4.597 -20.680
O 64.350 28.604 -30.496
O 63.862 23.815 -9.998
O 99.450 13.452 -15.614
O 55.697 27.730 -12.330
O 62.319 5.732 -12.604
O 61.006 13.261 -26.299
O 232.150 8.556 -5.621
O 44.316 29.011 -20.052
O 94.874 5.508 -27.405
O 225.151 8.628 -15.293
O 233.084 24.512 -0.174
O 234.498 12.186 -29.578
O 217.319 18.301 -30.342
O 221.154 20.766 -14.265
O 218.957 9.285 -0.637
O 95.714 24.719 -29.695
O 67.383 14.773 -1.130
O 94.805 18.298 -10.924
O 91.082 8.064 -28.273
O 90.773 20.003 -20.151
O 233.687 24.597 -25.230
O 49.630 22.459 -14.123
O 84.190 12.539 -18.420
O 45.298 4.883 -23.755
O 68.691 3.864 -18.618
O 105.967 18.529 -27.599
O 83.990 11.711 -0.001
O 84.319 14.877 -14.007
O 83.691 29.961 -12.550
O 92.655 0.677 -12.132
O 219.456 31.067 -18.756
O 49.859 5.792 -18.844
O 91.165 11.434 -14.362
O 44.232 19.243 -16.081
O 67.321 15.897 -10.904
O 228.036 20.857 -18.799
O 223.060 24.964 -2.578
O 41.579 9.226 -23.597
O 66.751 19.260 -30.883
O 78.348 27.255 -23.354
O 72.247 1.852 -1.829
O 99.163 4.662 -22.609
O 41.579 23.740 -26.675
O 61.787 14.417 -19.084
O 224.010 7.063 -23.058
O 90.791 19.974 -1.593
O 241.163 9.048 -31.030
O 83.157 6.350 -12.962
O 69.686 20.729 -13.474
O 43.922 18.283 -1.835
O 237.166 16.741 -17.954
O 218.704 31.226 -9.304
O 40.904 21.631 -24.099
O 57.473 1.623 -3.108
O 85.213 17.533 -23.401
O 42.220 19.701 -21.413
O 232.747 6.330 -24.639
O 64.982 1.792 -2.103
O 90.267 14.193 -19.512
O 55.326 7.083 -14.372
O 104.355 0.333 -22.169
O 46.106 9.128 -23.388
O 222.208 29.025 -20.721
O 234.326 30.697 -9.874
O 228.942 16.329 -14.213
O 92.613 13.088 -0.216
O 50.038 9.421 -11.017
O 53.908 28.500 -7.317
O 224.389 30.447 -17.833
O 79.813 1.135 -1.296
O 48.364 8.137 -8.122
O 67.686 21.674 -0.780
O 45.529 10.601 -30.690
O 220.770 8.502 -17.706
O 90.369 21.876 -13.966
O 81.095 16.504 -8.740
O 234.914 8.109 -12.018
O 234.794 10.043 -6.782
O 92.460 28.037 -2.864
O 66.155 18.215 -13.830
O 65.837 29.542 -19.040
O 55.648 28.168 -28.833
O 63.628 1.511 -26.098
O 219.751 25.272 -28.716
O 99.570 6.017 -8.742
O 89.193 16.873 -29.854
O 63.084 15.231 -11.379
O 50.249 6.355 -7.108
O 83.451 11.115 -28.702
O 96.403 31.204 -5.351
O 101.956 14.863 -24.128
O 223.919 4.929 -26.095
O 220.995 27.253 -30.270
O 100.334 18.361 -11.965
O 107.743 24.637 -26.853
O 99.303 31.253 -21.828
O 50.389 3.220 -20.344
O 73.335 19.314 -0.021
O 226.977 9.426 -28.653
O 44.217 26.050 -29.512
O 76.608 9.318 -16.776
O 102.310 10.166 -19.663
O 92.318 14.630 -15.880
O 65.482 3.068 -8.209
O 229.330 0.053 -14.369
O 242.234 14.150 -20.811
O 64.472 0.943 -29.751
O 54.525 6.374 -5.249
O 41.756 17.960 -19.259
O 76.475 3.682 -21.744
O 44.292 29.975 -28.077
O 74.000 10.756 -25.612
O 63.399 16.679 -18.800
O 87.511 29.141 -18.945
O 224.219 30.936 -5.601
O 58.007 31.010 -17.144
O 92.135 7.114 -17.863
O 226.631 0.214 -3.591
O 225.445 22.267 -9.070
O 242.093 6.201 -27.052
O 64.661 2.274 -11.982
O 92.677 6.497 -20.916
O 56.202 3.679 -24.050
O 68.065 11.798 -8.379
O 60.294 22.084 -2.346
O 53.091 28.608 -30.004
O 230.753 28.772 -28.406
O 41.817 11.278 -25.490
O 40.221 27.694 -5.879
O 70.815 18.428 -30.516
O 56.857 12.646 -29.648
O 49.833 27.091 -24.493
O 87.700 16.214 -15.685
O 86.236 29.877 -8.980
O 79.362 17.791 -0.996
O 228.719 21.650 -6.465
O 84.848 25.385 -11.201
O 104.308 11.240 -2.104
O 96.028 31.101 -16.013
O 50.875 0.991 -18.538
O 47.708 28.638 -23.194
O 220.777 24.002 -19.639
O 49.283 19.258 -3.054
O 54.890 13.288 -15.007
O 227.968 17.135 -16.615
O 90.725 9.994 -6.855
O 91.323 6.807 -11.485
O 242.754 19.693 -18.485
O 103.137 23.195 -10.394
O 40.605 23.932 -29.403
O 63.762 31.292 -18.107
O 76.180 6.012 -20.124
O 71.616 5.145 -8.126
O 83.498 30.012 -26.740
O 231.128 26.360 -17.996
O 70.667 21.911 -1.817
O 239.638 21.242 -12.005
O 63.749 13.681 -1.869
O 77.934 3.240 -25.843
O 62.774 26.441 -24.079
O 42.113 7.359 -28.249
O 230.146 19.534 -9.094
O 231.434 15.589 -15.105
O 226.216 21.506 -13.228
O 59.883 11.126 -4.141
O 104.054 6.002 -13.068
O 234.276 19.405 -17.739
O 60.173 29.992 -2.448
O 106.546 15.420 -30.276
O 232.896 9.040 -1.229
O 95.177 28.142 -20.983
O 230.505 25.581 -21.786
O 218.673 8.013 -29.522
O 103.097 28.317 -27.141
O 92.071 4.238 -12.085
O 78.292 12.504 -23.379
O 85.962 20.008 -0.313
O 222.111 5.476 -28.123
O 231.485 2.784 -5.806
O 106.081 14.918 -25.630
O 49.645 0.241 -1.575
O 104.240 12.486 -28.313
O 66.129 30.601 -1.380
O 71.159 10.899 -17.423
O 67.216 2.573 -5.824
O 76.613 26.348 -0.036
O 65.843 5.845 -9.480
O 236.850 12.217 -23.849
O 57.327 27.285 -9.567
O 86.634 18.534 -14.594
O 223.834 17.126 -26.306
O 236.761 10.050 -28.001
O 80.191 16.857 -22.851
O 218.135 24.032 -6.886
O 58.842 14.588 -29.611
O 224.526 22.993 -4.181
O 228.822 27.422 -22.988
O 101.432 9.071 -17.175
O 61.376 9.721 -5.855
O 78.656 3.177 -28.720
O 67.178 9.476 -14.240
O 237.555 7.495 -11.929
O 86.659 31.148 -6.678
O 102.607 13.056 -19.814
O 68.852 0.220 -24.713
O 71.654 15.969 -13.004
O 232.170 20.051 -29.276
O 225.915 27.400 -16.058
O 84.858 11.086 -21.250
O 67.942 13.286 -25.184
O 82.344 28.426 -20.028
O 47.859 10.139 -17.655
O 49.592 7.850 -20.915
O 97.493 6.106 -17.668
O 47.776 10.080 -26.117
O 79.088 3.728 -20.575
O 44.124 26.713 -10.695
O 221.136 4.124 -0.304
O 81.196 22.956 -26.811
O 87.972 5.259 -10.902
O 225.543 8.579 -5.411
O 220.289 1.342 -1.086
O 219.890 9.600 -14.398
O 87.248 14.292 -23.280
O 48.470 21.270 -16.448
O 47.806 25.851 -14.739
O 70.147 0.698 -3.385
O 93.274 23.328 -30.265
O 96.093 2.387 -9.951
O 93.389 11.873 -26.528
O 46.386 19.172 -11.336
O 231.816 21.657 -22.879
O 227.223 28.815 -18.344
O 41.657 26.020 -20.123
O 230.104 2.874 -0.702
O 238.811 20.195 -19.470
O 55.337 2.199 -14.039
O 232.741 11.298 -4.927
O 233.157 10.546 -15.440
O 234.141 27.893 -9.047
O 46.431 2.417 -2.746
O 101.308 5.924 -13.992
O 82.575 5.712 -25.250
O 44.539 12.502 -13.219
O 85.992 21.721 -2.334
O 94.081 10.122 -18.364
O 223.862 27.747 -2.437
O 88.040 19.201 -24.067
O 104.159 8.726 -21.368
O 40.884 23.667 -8.882
O 241.921 25.822 -30.375
O 64.364 30.726 -15.144
O 93.234 8.987 -10.781
O 98.505 29.494 -26.431
O 231.356 0.295 -4.809
O 49.745 15.668 -7.838
O 90.177 12.460 -30.577
O 73.445 17.306 -28.247
O 93.912 27.911 -5.468
O 77.456 24.619 -10.506
O 44.479 23.579 -28.637
O 98.180 0.881 -25.397
O 242.246 12.263 -24.581
O 86.859 11.703 -22.905
O 237.143 4.568 -19.518
O 232.103 18.024 -7.473
O 77.566 6.595 -3.561
O 224.422 27.044 -24.930
O 44.800 19.261 -30.778
O 100.578 27.681 -5.294
O 52.946 30.770 -10.617
O 101.843 21.068 -28.656
O 226.467 11.639 -9.084
O 58.967 0.101 -4.868
O 49.068 21.606 -6.962
O 82.952 24.211 -16.094
O 79.778 1.882 -4.131
O 46.777 4.992 -25.978
O 70.394 27.263 -0.390
O 220.995 21.275 -17.312
O 241.766 2.568 -24.365
O 81.157 6.281 -31.015
O 241.379 26.124 -15.185
O 99.217 27.083 -19.732
O 223.010 19.199 -6.743
O 43.978 2.626 -22.971
O 87.153 27.366 -0.165
O 90.567 17.068 -13.219
O 48.216 1.846 -31.047
O 55.880 24.697 -12.400
O 85.838 6.105 -21.855
O 65.634 20.188 -21.892
O 57.852 2.878 -21.053
O 53.715 4.042 -2.817
O 52.674 31.262 -28.342
O 63.710 3.581 -30.087
O 86.769 29.104 -4.717
O 75.595 29.104 -18.618
O 105.037 19.497 -18.271
O 74.604 26.062 -18.733
O 56.355 19.552 -3.625
O 75.296 17.943 -1.230
O 241.435 18.850 -24.285
O 97.958 25.030 -18.666
O 57.266 25.570 -19.155
O 50.480 5.331 -28.855
O 88.503 19.067 -27.021
O 90.737 21.420 -26.003
O 235.013 7.293 -1.821
O 227.936 0.791 -11.535
O 224.691 19.385 -11.894
O 62.551 24.618 -19.980
O 42.585 9.463 -17.053
O 69.573 26.965 -10.082
O 233.200 6.231 -16.657
O 222.087 19.668 -19.960
O 225.373 12.321 -24.371
O 91.200 29.451 -17.902
O 58.698 2.687 -16.367
O 95.748 11.795 -14.999
O 219.497 25.700 -15.167
O 96.008 26.031 -17.082
O 218.828 14.416 -17.964
O 220.504 23.760 -22.585
O 225.189 6.796 -8.635
O 45.966 28.496 -29.569
O 225.245 5.478 -30.431
O 226.775 7.314 -12.333
O 71.790 7.784 -5.560
O 106.143 20.047 -11.502
O 67.835 17.117 -27.436
O 94.495 25.150 -3.117
O 85.984 27.178 -9.331
O 238.456 20.037 -8.985
O 103.805 30.578 -5.463
O 218.454 9.235 -19.160
O 78.169 7.285 -25.163
O 69.252 20.244 -7.769
O 82.384 16.629 -21.201
O 72.500 21.132 -13.238
O 65.684 23.534 -15.837
O 238.708 9.757 -2.154
O 88.338 9.623 -9.830
O 84.975 21.904 -19.683
O 71.805 6.930 -27.020
O 90.917 12.579 -5.761
O 79.106 6.424 -20.213
O 99.236 26.168 -14.705
O 223.511 8.601 -7.251
O 50.512 30.563 -14.702
O 241.444 29.833 -27.059
O 234.150 8.565 -8.922
O 88.650 19.185 -0.279
O 58.665 16.336 -21.275
O 57.529 23.314 -0.480
O 98.931 14.921 -23.399
O 239.021 17.944 -6.871
O 96.945 11.910 -4.384
O 77.045 24.971 -29.041
O 222.894 21.176 -10.447
O 102.848 0.255 -18.179
O 83.066 30.355 -22.711
O 104.335 18.555 -29.951
O 62.752 22.201 -29.915
O 81.998 0.419 -20.358
O 50.677 10.053 -14.119
O 218.962 18.335 -1.342
O 230.627 4.085 -22.491
O 235.913 0.724 -26.131
O 44.048 14.808 -1.525
O 224.041 14.324 -19.256
O 221.716 7.572 -10.088
O 240.816 17.703 -18.558
O 53.356 10.048 -12.446
O 100.246 14.891 -18.815
O 221.942 12.021 -15.331
O 237.365 24.301 -27.834
O 60.427 26.241 -26.912
O 59.215 21.927 -28.698
O 228.893 24.850 -1.126
O 43.352 13.768 -15.741
O 91.169 1.501 -20.191
O 98.328 11.143 -17.363
O 81.654 13.881 -5.026
O 222.452 13.492 -28.349
O 97.229 13.774 -11.791
O 222.917 21.341 -28.830
O 95.536 5.225 -2.349
O 40.015 13.807 -1.798
O 88.932 31.228 -20.132
O 231.973 6.804 -8.124
O 233.463 24.386 -19.068
O 98.616 7.448 -15.496
O 56.907 28.183 -25.975
O 68.805 13.063 -3.595
O 66.395 19.515 -28.106
O 57.877 18.931 -25.720
O 86.392 3.956 -14.564
O 41.538 4.988 -26.363
O 228.975 14.993 -7.990
O 40.529 21.011 -30.418
O 219.690 8.023 -11.794
O 43.284 30.399 -30.923
O 73.657 10.409 -7.135
O 94.037 5.144 -14.058
O 55.056 20.895 -1.553
O 105.410 25.183 -17.256
O 218.373 2.537 -24.090
O 72.833 22.466 -5.527
O 241.698 29.611 -7.057
O 233.300 0.178 -7.495
O 51.206 3.949 -31.381
O 220.738 14.991 -26.752
O 75.884 19.112 -28.467
O 89.232 15.083 -11.779
O 83.159 28.095 -30.957
O 90.212 20.873 -10.219
O 98.561 24.000 -16.176
O 44.776 17.385 -7.235
O 228.127 15.773 -30.474
O 49.443 1.151 -16.218
O 83.754 23.654 -31.087
O 90.953 16.118 -9.082
O 65.726 27.593 -23.874
O 58.045 17.189 -0.717
O 45.882 10.811 -2.669
O 215.318 22.308 -6.496
O 49.951 0.137 -28.323
O 50.684 25.143 -21.814
O 220.315 1.721 -7.989
O 88.060 15.407 -7.846
O 234.102 20.398 -9.216
O 89.263 0.719 -6.879
O 85.791 10.415 -10.174
O 71.334 24.393 -12.936
O 49.373 28.634 -20.596
O 41.790 15.993 -25.947
O 82.503 14.697 -18.400
O 77.464 22.025 -15.623
O 82.715 11.495 -22.736
O 51.714 28.480 -16.012
O 60.070 16.080 -8.105
O 42.625 8.302 -4.373
O 97.958 11.225 -29.512
O 76.672 27.322 -10.633
O 61.938 26.654 -15.880
O 102.050 29.276 -24.902
O 240.149 8.981 -6.861
O 240.745 16.664 -31.039
O 220.443 13.262 -3.452
O 65.435 20.407 -25.780
O 52.491 23.178 -0.173
O 223.339 7.435 -29.663
O 104.864 16.300 -21.202
O 97.265 0.317 -18.358
O 70.614 20.925 -19.907
O 223.264 3.302 -30.006
O 99.609 29.447 -13.323
O 95.490 2.567 -24.805
O 229.243 19.023 -13.671
O 52.569 18.395 -30.186
O 83.592 22.240 -8.038
O 235.781 20.103 -25.923
O 101.819 0.848 -20.646
O 71.339 7.012 -20.780
O 226.724 25.484 -22.758
O 103.932 21.481 -20.093
O 55.671 28.733 -16.891
O 56.345 22.953 -2.861
O 224.957 21.467 -6.605
O 71.730 22.128 -28.034
O 95.289 4.661 -21.375
O 42.087 28.001 -29.576
O 61.575 5.425 -6.904
O 224.386 13.902 -22.180
O 43.382 1.440 -12.483
O 64.365 15.399 -8.362
O 88.828 24.631 -19.293
O 77.923 15.091 -13.496
O 46.655 24.699 -18.218
O 241.331 1.279 -6.015
O 60.095 9.490 -10.734
O 45.820 21.680 -19.563
O 227.013 1.443 -29.047
O 233.054 12.938 -1.938
O 61.817 4.649 -0.570
O 225.088 1.470 -22.363
O 80.498 13.930 -24.301
O 74.653 28.206 -21.515
O 82.270 24.609 -9.134
O 42.343 1.299 -8.733
O 80.804 17.166 -13.244
O 94.478 22.649 -25.913
O 216.058 14.423 -30.310
O 44.030 6.698 -18.745
O 72.003 23.890 -25.349
O 229.546 9.936 -20.154
O 76.203 10.644 -29.928
O 67.992 14.169 -30.015
O 86.283 3.265 -11.752
O 84.955 16.950 -4.246
O 78.603 29.755 -7.405
O 232.821 26.779 -20.750
O 98.320 8.417 -29.230
O 216.656 15.966 -3.822
O 56.074 20.980 -12.322
O 239.078 7.890 -22.620
O 62.483 10.909 -30.153
O 102.664 2.948 -1.752
O 219.956 7.301 -2.107
O 107.192 22.564 -28.938
O 45.432 25.745 -16.030
O 230.764 15.424 -21.279
O 59.682 31.210 -9.586
O 87.563 3.727 -5.860
O 62.001 24.926 -29.014
O 56.527 3.088 -18.405
O 68.892 31.396 -8.432
O 239.407 20.681 -29.038
O 229.013 7.507 -9.751
O 91.992 8.244 -1.733
O 64.250 12.727 -10.471
O 74.325 23.601 -9.189
O 71.737 4.864 -5.082
O 53.338 1.994 -17.901
O 226.504 14.025 -7.198
O 226.370 27.423 -1.239
O 241.047 14.599 -18.383
O 53.085 14.715 -24.922
O 56.634 23.687 -22.048
O 241.590 23.328 -23.844
O 226.443 14.818 -15.427
O 53.560 16.353 -7.090
O 77.298 18.722 -15.401
O 78.488 8.404 -10.550
O 74.398 7.798 -0.338
O 74.888 29.382 -9.997
O 240.589 24.325 -0.942
O 229.470 19.890 -27.588
O 60.531 14.697 -12.649
O 59.404 0.362 -0.188
O 94.050 1.662 -1.813
O 106.482 11.544 -4.925
O 88.158 2.138 -15.657
O 56.078 21.749 -30.350
O 95.306 9.043 -12.563
O 75.184 3.423 -25.684
O 45.548 25.480 -0.333
O 81.510 27.060 -28.888
O 46.666 21.241 -24.123
O 98.016 8.494 -11.423
O 93.274 13.472 -21.166
O 69.620 4.140 -21.415
O 48.229 28.257 -9.185
O 59.628 13.338 -7.180
O 84.148 1.214 -18.717
O 57.423 20.001 -21.368
O 59.137 15.248 -24.831
O 81.733 14.626 -13.883
O 85.148 3.839 -18.059
O 59.705 17.501 -23.616
O 234.963 31.105 -16.785
O 53.575 18.804 -4.086
O 62.424 25.027 -8.014
O 220.063 20.565 -10.824
O 81.760 25.297 -21.322
O 70.713 13.924 -26.943
O 84.257 2.182 -8.181
O 81.398 3.689 -1.148
O 51.656 3.819 -7.609
O 100.512 18.506 -17.226
O 234.712 23.822 -16.646
O 53.591 12.997 -10.568
O 95.741 8.432 -23.645
O 98.045 17.691 -1.608
O 91.244 30.423 -10.473
O 53.147 11.246 -15.026
O 104.589 24.121 -2.653
O 52.806 1.373 -21.854
O 224.615 23.036 -24.653
O 55.258 20.351 -6.004
O 91.850 31.190 -25.148
O 54.600 16.187 -26.851
O 73.908 20.715 -17.438
O 101.123 8.216 -3.134
O 217.270 14.707 -1.591
O 68.189 18.476 -12.086
O 89.349 29.643 -15.812
O 68.507 23.946 -12.598
O 237.542 0.871 -5.759
O 104.300 31.034 -10.463
O 234.832 2.219 -22.593
O 239.026 22.257 -26.952
O 90.415 2.937 -5.774
O 73.072 5.625 -25.036
O 62.674 18.306 -31.150
O 48.274 7.259 -10.772
O 76.789 6.825 -6.302
O 227.449 23.196 -27.256
O 238.024 8.612 -14.522
O 96.453 4.991 -25.268
O 49.330 10.377 -20.048
O 96.569 8.818 -9.043
O 70.015 4.236 -29.618
O 230.422 12.565 -7.520
O 70.062 18.612 -24.673
O 96.472 27.387 -2.554
O 83.717 9.267 -8.582
O 81.312 15.976 -1.673
O 228.148 6.265 -18.853
O 94.649 8.655 -25.931
O 236.844 23.180 -2.692
O 79.197 10.082 -17.162
O 217.461 0.063 -6.910
O 83.473 13.575 -24.294
O 67.889 27.354 -4.213
O 97.281 20.043 -19.873
O 63.712 7.679 -18.340
O 229.299 4.314 -12.361
O 223.359 23.271 -22.066
O 75.383 15.700 -22.227
O 106.995 10.171 -28.578
O 93.853 28.475 -27.950
O 99.296 25.743 -1.871
O 230.554 0.047 -23.370
O 101.269 24.477 -26.977
O 240.872 5.027 -5.501
O 231.387 9.712 -17.307
O 87.721 17.454 -2.764
O 72.509 23.606 -21.465
O 72.620 13.654 -3.758
O 104.171 10.633 -30.501
O 234.112 6.893 -4.505
O 104.032 23.729 -27.903
O 219.254 26.199 -9.620
O 102.670 0.602 -24.583
O 97.631 27.799 -24.595
O 58.831 5.536 -20.695
O 68.641 9.734 -16.886
O 224.276 1.765 -4.167
O 59.228 25.316 -30.605
O 56.511 29.628 -31.191
O 102.895 26.110 -5.496
O 227.995 9.063 -24.338
O 77.891 15.697 -27.292
O 80.340 15.020 -29.866
O 221.064 10.734 -9.918
O 51.716 17.576 -5.693
O 85.699 25.261 -16.991
O 229.869 20.289 -4.083
O 223.671 18.190 -21.830
O 218.087 7.938 -4.706
O 41.358 19.250 -5.685
O 63.480 0.127 -21.677
O 103.174 1.753 -5.403
O 95.354 20.078 -13.236
O 47.062 31.184 -2.288
O 95.258 13.421 -30.456
O 75.613 26.178 -8.206
O 80.882 27.406 -1.467
O 63.968 16.605 -13.993
O 240.362 27.511 -25.645
O 91.852 22.837 -11.479
O 236.527 3.409 -5.161
O 94.147 22.138 -8.494
O 241.636 31.094 -19.026
O 77.010 26.295 -19.967
O 44.412 26.027 -19.628
O 42.744 26.644 -16.029
O 51.178 29.716 -18.804
O 100.669 2.130 -17.042
O 68.421 0.975 -15.776
O 70.953 16.406 -15.749
O 51.789 22.892 -6.888
O 46.576 9.241 -6.340
O 74.383 24.727 -15.753
O 242.524 6.864 -29.887
O 228.284 20.728 -15.725
O 98.103 2.820 -17.996
O 100.345 12.829 -8.577
O 236.486 2.546 -29.660
O 75.433 19.640 -20.263
O 62.097 7.016 -24.615
O 61.528 7.185 -3.764
O 88.019 29.788 -11.987
O 237.378 7.636 -20.310
O 65.341 31.290 -27.306
O 83.714 30.452 -9.800
O 57.185 3.729 -27.468
O 71.225 13.627 -11.813
O 218.644 2.018 -17.602
O 216.791 11.333 -23.703
O 236.608 6.907 -27.065
O 62.916 11.441 -26.420
O 227.671 3.981 -2.701
O 81.022 30.226 -0.594
O 62.688 9.602 -10.701
O 221.270 24.103 -5.235
O 242.601 31.201 -14.027
O 82.670 4.438 -3.538
O 219.919 4.835 -3.286
O 41.925 15.210 -18.825
O 223.399 10.254 -16.747
O 218.164 19.388 -21.569
O 242.875 2.086 -19.735
O 67.382 18.358 -16.274
O 83.421 5.713 -16.788
O 224.243 7.574 -11.252
O 72.493 30.275 -10.603
O 92.590 15.261 -12.498
O 64.841 6.169 -6.618
O 240.769 7.567 -14.767
O 241.530 16.980 -12.321
O 222.275 11.509 -5.340
O 77.738 25.413 -13.237
O 229.709 6.259 -31.212
O 71.038 8.094 -12.895
O 74.562 5.521 -12.431
O 69.755 5.533 -12.914
O 80.672 5.114 -12.512
O 67.620 3.236 -28.810
O 48.181 28.624 -14.931
O 46.161 30.162 -25.741
O 85.188 31.076 -24.657
O 235.598 12.369 -26.935
O 73.948 8.050 -28.244
O 83.028 16.897 -16.713
O 81.320 4.698 -18.009
O 224.830 19.608 -0.929
O 55.331 31.234 -3.478
O 73.982 26.846 -6.200
O 240.137 11.663 -28.153
O 58.134 5.652 -31.129
O 98.405 7.908 -1.970
O 227.965 6.600 -5.430
O 91.454 9.386 -21.970
O 99.314 17.922 -23.424
O 75.686 22.310 -6.787
O 77.401 28.698 -0.613
O 234.099 11.824 -18.219
O 68.772 22.781 -18.913
O 236.121 21.705 -17.853
O 88.348 30.973 -3.377
O 57.804 15.997 -9.783
O 80.170 10.334 -23.896
O 43.907 21.138 -23.705
O 227.443 1.031 -7.220
O 102.635 23.727 -20.808
O 104.583 8.960 -13.384
O 237.462 9.407 -6.200
O 66.023 25.762 -11.802
O 217.789 16.538 -8.284
O 93.527 28.737 -15.284
O 81.482 30.501 -7.196
O 57.299 12.864 -2.031
O 233.565 16.245 -31.165
O 96.899 14.596 -15.323
O 73.386 28.250 -16.744
O 221.946 18.885 -28.944
O 75.490 22.876 -19.404
O 74.011 1.894 -4.439
O 221.592 27.259 -25.794
O 239.908 25.999 -28.388
O 73.115 10.751 -28.350
O 91.691 24.594 -4.225
O 50.897 8.814 -23.282
O 216.101 27.239 -7.755
O 64.346 5.649 -2.951
O 216.677 0.077 -11.062
O 106.223 23.018 -21.116
O 78.057 21.299 -1.856
O 230.554 7.846 -23.420
O 237.416 16.560 -11.078
O 48.091 21.232 -21.463
O 98.039 9.951 -14.792
O 65.294 14.445 -5.790
O 224.350 30.819 -20.579
O 76.196 11.209 -14.615
O 101.909 5.951 -30.006
O 46.008 15.081 -17.398
O 68.412 11.883 -14.438
O 41.390 9.743 -7.755
O 237.657 25.469 -6.579
O 45.206 5.330 -16.102
O 103.815 13.743 -2.846
O 230.822 2.103 -13.174
O 227.490 10.070 -14.940
O 98.512 10.689 -24.733
O 104.810 7.506 -5.308
O 225.704 29.659 -31.049
O 237.295 5.023 -13.045
O 81.230 7.852 -1.874
O 77.123 7.044 -12.666
O 45.426 29.224 -0.888
O 76.352 22.341 -29.377
O 107.160 20.228 -20.988
O 238.102 27.548 -4.380
O 50.392 24.100 -4.511
O 43.844 6.701 -9.902
O 53.193 9.356 -22.048
O 88.832 12.312 -12.809
O 81.604 13.366 -20.941
O 241.088 15.908 -3.674
O 218.052 29.192 -12.356
O 235.491 14.702 -4.780
O 60.042 17.754 -16.936
O 239.911 20.683 -5.638
O 229.246 27.617 -8.914
O 94.076 30.600 -21.750
O 238.227 12.105 -29.939
O 90.920 28.027 -11.965
O 45.811 24.756 -26.267
O 40.301 23.498 -18.639
O 98.791 24.835 -29.897
O 222.789 18.258 -13.381
O 86.194 19.645 -4.231
O 239.863 0.447 -23.875
O 231.638 27.795 -12.488
O 60.801 1.267 -25.839
O 59.907 13.980 -4.006
O 46.636 5.963 -7.369
O 227.875 29.073 -21.111
O 109.297 19.215 -1.151
O 40.636 15.422 -13.418
O 223.930 6.667 -4.235
O 60.411 26.692 -20.536
O 229.769 18.755 -25.166
O 60.421 2.221 -18.379
O 66.464 7.080 -0.355
O 229.141 27.549 -0.952
O 228.912 9.189 -26.827
O 242.177 7.149 -6.689
O 102.746 17.961 -18.774
O 95.100 24.152 -13.403
O 97.781 13.387 -21.270
O 240.930 8.308 -11.163
O 46.179 5.683 -30.144
O 77.832 0.822 -8.028
O 89.030 22.812 -30.697
O 226.598 4.725 -25.580
O 225.936 14.517 -10.733
O 240.210 12.307 -2.658
O 89.966 0.541 -1.677
O 83.116 22.117 -12.239
O 76.195 29.542 -23.478
O 59.910 8.170 -1.302
O 51.027 7.169 -0.472
O 62.863 29.569 -3.542
O 61.652 7.945 -30.590
O 239.198 15.771 -29.029
O 97.048 22.661 -2.538
O 217.363 6.914 -7.425
O 70.447 6.923 -9.963
O 242.212 12.491 -11.381
O 88.668 25.554 -1.488
O 91.513 16.501 -26.055
O 68.594 13.293 -10.648
O 67.828 30.733 -6.012
O 60.673 11.002 -1.307
O 56.098 13.766 -9.106
O 71.544 12.344 -20.852
O 40.461 28.422 -22.440
O 55.467 9.592 -20.434
O 46.707 30.592 -19.451
O 44.928 8.001 -29.009
O 237.602 2.637 -14.532
O 78.878 3.867 -8.331
O 227.166 20.850 -29.665
O 98.633 25.388 -4.592
O 48.968 8.921 -0.429
O 50.790 25.919 -15.162
O 60.133 26.398 -11.255
O 217.770 13.533 -22.494
O 62.997 21.818 -25.386
O 221.866 14.405 -11.920
O 225.378 29.262 -3.951
O 93.757 30.870 -6.108
O 238.025 27.992 -27.805
O 50.571 20.289 -25.520
O 84.153 11.293 -13.982
O 73.614 21.990 -30.316
O 223.762 17.045 -4.078
O 239.580 13.763 -14.989
O 62.431 17.176 -9.172
O 77.317 12.118 -3.310
O 230.950 20.193 -11.803
O 44.619 15.627 -25.669
O 99.161 20.489 -0.230
O 221.199 9.043 -3.998
O 62.561 14.132 -14.576
O 233.428 19.576 -20.648
O 51.450 19.316 -22.813
O 65.009 17.463 -11.082
O 236.771 17.935 -27.485
O 42.499 28.784 -4.860
O 50.645 22.721 -10.273
O 239.179 14.761 -2.002
O 68.955 26.763 -15.376
O 221.809 22.681 -12.554
O 57.184 8.449 -2.147
O 72.810 4.328 -21.832
O 40.614 3.873 -14.894
O 104.840 29.662 -15.553
O 55.132 19.684 -29.050
O 54.738 12.475 -7.002
O 103.572 20.891 -16.348
O 238.848 17.547 -4.169
O 72.635 21.943 -10.584
O 79.834 24.345 -28.708
O 226.200 18.255 -14.113
O 98.864 21.597 -4.250
O 238.211 26.938 -22.077
O 57.889 28.226 -18.163
O 42.315 4.513 -5.871
O 69.805 19.376 -27.681
O 237.242 2.237 -8.447
O 106.063 9.061 -23.138
O 234.437 13.613 -23.393
O 85.688 2.085 -29.571
O 74.095 26.609 -24.334
O 58.800 18.965 -28.335
O 51.533 22.542 -26.627
O 76.362 9.107 -26.548
O 102.363 9.119 -28.907
O 60.622 2.444 -3.278
O 102.619 1.754 -9.930
O 52.016 23.445 -15.892
O 81.114 26.427 -6.967
O 83.728 15.501 -27.846
O 47.152 19.012 -1.373
O 218.549 10.516 -16.839
O 94.518 16.851 -18.434
O 41.404 5.751 -3.657
O 53.055 15.271 -28.938
O 233.709 0.401 -3.199
O 102.112 22.668 -17.877
O 57.081 16.876 -3.933
O 47.402 4.802 -9.993
O 230.377 7.404 -12.077
O 59.470 5.125 -15.089
O 232.851 26.144 -10.703
O 91.462 18.857 -7.046
O 102.024 1.387 -28.450
O 44.362 17.412 -11.894
O 239.449 31.180 -10.676
O 80.458 19.365 -14.838
O 103.209 28.981 -18.212
O 233.780 4.184 -4.500
O 229.122 31.026 -3.228
O 59.514 4.994 -2.110
O 51.391 12.000 -8.954
O 227.256 10.028 -21.744
O 234.862 28.601 -19.843
O 66.776 0.996 -9.779
O 90.257 7.709 -19.772
O 69.979 10.754 -27.424
O 45.018 24.040 -5.226
O 88.030 8.699 -4.263
O 70.347 0.239 -30.043
O 43.271 0.810 -20.203
O 77.202 9.300 -22.954
O 48.356 31.250 -21.346
O 217.404 3.882 -21.971
O 53.643 5.492 -11.250
O 90.402 26.859 -23.559
O 45.218 8.387 -14.719
O 56.456 3.965 -4.125
O 242.492 31.400 -29.528
O 224.380 9.942 -12.790
O 235.015 2.128 -14.796
O 56.639 20.614 -8.326
O 67.138 30.811 -22.778
O 62.479 13.590 -6.969
O 240.623 11.331 -8.043
O 47.982 14.868 -30.717
O 104.657 14.204 -8.114
O 96.272 16.800 -13.182
O 42.746 27.709 -2.448
O 88.273 11.736 -7.639
O 220.512 6.400 -5.439
O 226.217 18.751 -18.331
O 60.734 11.558 -23.766
O 47.214 23.950 -24.246
O 87.008 9.216 -6.761
O 89.103 6.442 -23.505
O 48.772 3.008 -7.787
O 63.420 10.995 -2.496
O 240.934 10.243 -17.720
O 238.920 8.407 -29.565
O 95.323 8.954 -15.309
O 60.615 2.962 -23.157
O 105.204 25.170 -19.988
O 92.953 20.446 -14.759
O 61.284 18.019 -28.727
O 98.888 0.554 -1.063
O 229.096 9.251 -2.060
O 84.705 24.911 -1.867
O 221.122 17.847 -3.860
O 50.824 15.981 -15.417
O 52.233 8.057 -29.617
O 57.809 16.285 -16.016
O 62.669 24.532 -3.042
O 57.168 13.176 -5.839
O 93.637 22.806 -1.640
O 241.458 18.865 -29.675
O 223.892 25.434 -6.090
O 100.362 12.567 -30.407
O 78.840 16.898 -10.998
O 219.448 12.438 -11.514
O 102.625 25.113 -8.355
O 64.020 5.346 -19.872
O 88.399 25.927 -21.886
O 214.849 1.193 -9.345
O 45.398 23.554 -21.772
O 86.763 11.137 -13.822
O 70.517 9.685 -20.998
O 80.467 10.798 -0.817
O 62.562 18.851 -6.500
O 70.554 22.666 -23.332
O 242.640 27.329 -12.908
O 237.207 29.973 -10.224
O 223.609 9.936 -20.616
O 229.726 23.431 -10.357
O 73.318 0.362 -30.650
O 67.694 1.760 -31.010
O 44.395 2.730 -6.847
O 231.193 11.064 -2.577
O 80.760 8.108 -18.144
O 88.034 24.037 -11.368
O 233.950 31.083 -13.577
O 88.238 0.984 -12.479
O 46.444 0.933 -6.039
O 52.970 24.029 -23.510
O 66.107 31.061 -12.141
O 226.335 4.531 -9.770
O 104.332 22.532 -14.155
O 56.889 0.342 -12.633
O 83.064 28.352 -8.098
O 53.079 4.650 -27.472
O 53.923 10.809 -0.767
O 218.011 11.931 -26.146
O 56.587 15.672 -18.908
O 90.086 22.308 -18.581
O 96.033 24.292 -22.649
O 235.439 2.316 -2.589
O 69.983 27.877 -12.585
O 108.838 7.800 -4.550
O 101.788 13.913 -28.782
O 72.361 13.385 -7.568
O 94.459 28.527 -0.781
O 98.624 12.739 -2.521
O 60.857 23.216 -26.761
O 223.027 22.665 -18.364
O 60.992 28.817 -22.269
O 66.389 8.113 -17.554
O 78.981 10.503 -26.583
O 221.411 27.576 -14.956
O 76.509 15.212 -29.488
O 228.472 13.716 -17.759
O 68.356 21.953 -27.668
O 40.663 27.541 -0.659
O 63.263 15.009 -24.499
O 59.688 20.140 -19.653
O 58.748 16.936 -13.232
O 72.147 26.328 -26.569
O 66.746 20.612 -17.868
O 42.818 14.059 -4.227
O 64.849 28.234 -2.016
O 41.477 0.383 -25.729
O 42.433 11.048 -19.774
O 80.885 2.260 -22.194
O 217.578 29.992 -25.669
O 73.058 14.769 -1.142
O 63.383 8.617 -26.560
O 222.587 12.349 -20.468
O 88.514 13.292 -17.668
O 89.047 9.570 -12.333
O 99.635 6.892 -31.135
O 61.076 28.926 -27.115
O 232.807 23.547 -9.620
O 69.279 21.821 -16.137
O 101.029 30.382 -2.399
O 51.835 19.436 -8.965
O 239.417 15.393 -12.353
O 45.510 25.166 -8.764
O 47.551 20.434 -4.986
O 87.227 9.874 -25.042
O 96.477 11.942 -23.038
O 81.347 21.489 -29.954
O 221.016 19.901 -25.152
O 95.654 18.624 -24.965
O 241.572 5.946 -17.009
O 74.175 15.431 -8.106
O 40.031 4.566 -0.162
O 50.462 26.615 -30.063
O 58.223 7.083 -8.417
O 45.394 7.478 -21.067
O 242.185 20.829 -7.142
O 218.546 17.017 -5.509
O 41.385 8.785 -0.949
O 62.750 9.207 -20.760
O 225.578 16.939 -20.154
O 50.971 23.891 -18.246
O 64.903 13.083 -25.856
O 89.284 6.570 -13.354
O 88.315 24.111 -15.994
O 228.374 26.402 -18.440
O 57.782 3.109 -30.117
O 87.797 5.277 -29.334
O 223.861 12.706 -13.107
O 65.379 11.028 -23.780
O 221.651 2.236 -22.877
O 100.837 9.484 -31.083
O 78.837 19.461 -29.071
O 238.669 17.480 -20.241
O 229.246 17.217 -6.271
O 238.102 2.175 -25.537
O 94.551 20.072 -27.327
O 68.159 16.821 -22.329
O 97.570 4.258 -11.405
O 239.513 23.098 -3.273
O 237.076 20.663 -5.620
O 227.021 26.489 -29.676
O 46.049 12.413 -24.434
O 54.289 28.739 -22.499
O 215.335 25.673 -3.306
O 54.839 6.490 -2.491
O 241.322 3.256 -13.380
O 43.216 20.637 -18.975
O 241.861 3.878 -7.946
O 71.859 6.759 -1.461
O 103.648 30.273 -13.249
O 91.966 21.531 -6.953
O 88.169 5.775 -20.279
O 99.311 7.710 -26.674
O 102.918 7.424 -1.438
O 104.987 14.874 -16.219
O 222.825 0.480 -1.891
O 55.685 0.972 -16.811
O 64.927 27.997 -15.364
O 59.515 30.812 -12.173
O 74.887 0.441 -8.202
O 69.292 12.882 -22.610
O 219.007 11.026 -5.336
O 219.724 17.336 -27.510
O 75.121 28.567 -25.973
O 82.953 9.051 -12.565
O 46.462 8.219 -0.872
O 240.720 0.611 -15.462
O 236.283 11.543 -20.260
O 73.735 12.195 -11.413
O 220.215 14.994 -23.337
O 70.386 9.584 -10.815
O 240.222 28.064 -16.623
O 47.355 12.631 -1.547
O 232.686 24.101 -22.700
O 82.872 24.597 -25.454
O 51.487 26.420 -7.355
O 237.382 27.360 -11.690
O 88.944 24.619 -4.062
O 225.479 20.231 -15.988
O 48.948 12.592 -17.515
O 104.905 18.043 -12.981
O 53.008 7.389 -27.096
O 56.341 23.493 -17.266
O 61.299 22.351 -20.755
O 47.041 1.456 -25.364
O 223.809 11.606 -8.441
O 52.989 16.796 -19.902
O 228.528 28.260 -25.816
O 81.660 28.163 -23.666
O 233.814 12.905 -7.221
O 218.726 20.467 -19.110
O 40.973 18.765 -25.715
O 46.072 17.541 -15.595
O 95.715 15.907 -2.642
O 80.407 6.867 -14.505
O 242.678 17.123 -1.622
O 95.442 6.109 -11.931
O 82.994 16.158 -30.606
O 82.630 0.942 -16.482
O 60.685 30.172 -15.121
O 85.802 7.771 -24.071
O 57.224 15.533 -27.240
O 227.727 5.576 -28.352
O 102.150 15.371 -13.539
O 226.717 1.644 -26.272
O 74.149 5.842 -30.093
O 69.819 15.674 -28.924
O 71.475 29.548 -18.252
O 93.889 31.117 -30.948
O 64.474 9.097 -7.728
O 56.401 11.359 -24.499
O 79.695 0.755 -13.372
O 97.711 0.629 -13.995
O 105.390 21.009 -9.048
O 73.097 0.948 -13.673
O 85.013 0.918 -13.049
O 241.737 16.238 -23.026
O 87.176 14.847 -30.990
O 219.132 5.176 -25.469
O 99.139 13.169 -5.912
O 94.693 4.187 -4.887
O 90.041 2.816 -17.749
O 76.767 25.331 -24.126
O 241.729 6.000 -12.624
O 74.457 2.530 -29.875
O 57.463 12.014 -15.715
O 221.179 20.394 -4.859
O 107.289 9.689 -1.090
O 241.040 28.823 -20.770
O 90.334 13.280 -9.493
O 66.894 14.829 -21.079
O 58.076 11.397 -22.265
O 92.474 29.112 -8.210
O 81.322 29.644 -13.964
O 238.347 27.990 -18.952
O 222.416 6.679 -0.626
O 223.129 15.867 -6.567
O 42.991 22.660 -3.886
O 43.310 7.271 -22.834
O 62.301 1.236 -1.444
O 90.089 6.096 -15.964
O 68.049 10.325 -19.471
O 60.187 9.298 -19.107
O 239.902 20.207 -16.917
O 60.080 5.853 -29.075
O 83.958 28.634 -4.188
O 220.219 29.624 -26.111
O 223.195 25.209 -12.876
O 73.940 12.956 -15.692
O 61.791 5.804 -16.277
O 239.019 0.785 -19.669
O 70.629 4.215 -16.732
O 71.403 11.564 -5.111
O 52.444 13.908 -7.287
O 64.918 16.378 -1.159
O 79.181 28.086 -9.581
O 44.683 4.565 -3.290
O 75.518 15.804 -17.115
O 236.537 17.627 -30.344
O 49.091 10.904 -23.626
O 73.120 25.072 -11.218
O 94.605 12.127 -8.607
O 86.440 6.544 -14.459
O 52.985 17.404 -17.050
O 224.308 2.259 -17.071
O 227.976 13.329 -24.776
O 104.003 16.068 -10.871
O 236.724 0.442 -12.198
O 77.116 17.558 -30.576
O 106.313 15.719 -4.252
O 57.725 27.710 -23.478
O 236.818 17.709 -15.341
O 233.070 13.323 -14.334
O 93.873 9.249 -5.128
O 94.040 21.909 -19.310
O 72.023 19.531 -15.653
O 78.441 28.639 -17.548
O 229.807 18.505 -17.892
O 103.698 3.055 -12.070
O 48.083 30.422 -4.748
O 77.859 29.925 -21.166
O 80.748 10.147 -6.417
O 97.009 2.817 -22.487
O 92.804 22.131 -4.470
O 57.868 11.613 -19.402
O 240.870 27.582 -9.821
O 81.659 19.326 -0.187
O 54.236 21.562 -26.464
O 105.197 9.193 -16.572
O 44.413 23.430 -15.264
O 96.526 5.463 -15.180
O 103.014 27.591 -12.319
O 52.729 3.230 -13.212
O 98.155 12.320 -26.793
O 107.108 20.350 -24.753
O 46.546 13.988 -14.688
O 95.937 9.435 -1.018
O 233.421 19.103 -11.395
O 237.277 14.483 -25.334
O 106.243 3.072 -22.821
O 230.583 22.983 -12.880
O 217.066 27.676 -10.292
O 56.572 4.698 -14.382
O 85.915 8.004 -11.918
O 222.133 15.882 -0.019
O 238.883 30.782 -17.212
O 43.657 3.003 -16.518
O 53.890 1.109 -7.432
O 57.271 23.724 -7.846
O 98.977 15.817 -6.660
O 42.477 15.501 -11.382
O 40.458 13.921 -16.618
O 66.442 25.225 -25.197
O 106.586 22.156 -0.573
O 72.145 23.735 -0.384
O 74.550 13.409 -28.328
O 51.452 28.164 -22.698
O 226.484 12.611 -20.797
O 87.762 5.086 -17.758
O 84.127 2.073 -23.461
O 66.481 18.703 -4.396
O 63.842 2.610 -6.087
O 54.720 26.551 -8.880
O 96.000 10.725 -26.855
O 62.786 30.716 -12.479
O 225.623 31.012 -10.857
O 47.492 17.698 -17.870
O 45.115 9.161 -26.689
O 81.098 25.067 -30.845
O 77.253 16.490 -4.075
O 105.990 23.654 -8.112
O 75.869 22.595 -3.187
O 80.728 5.124 -28.440
O 54.326 27.182 -15.148
O 55.599 14.496 -21.038
O 104.357 13.282 -11.196
O 222.661 27.743 -7.185
O 97.714 8.016 -21.084
O 227.407 27.715 -4.662
O 86.790 17.070 -10.938
O 40.498 20.629 -16.167
O 221.519 9.914 -23.758
O 241.803 10.016 -15.074
O 223.900 29.596 -28.977
O 78.043 4.099 -5.628
O 62.706 1.274 -10.200
O 83.024 0.813 -28.573
O 229.762 28.498 -3.518
O 52.871 12.408 -3.816
O 224.537 18.008 -29.823
O 91.835 18.311 -10.978
O 93.277 18.059 -23.425
O 218.261 26.390 -19.037
O 76.368 10.384 -9.266
O 238.038 3.086 -10.847
O 235.774 30.075 -24.398
O 46.988 4.141 -0.766
O 78.035 16.546 -21.372
O 216.361 20.867 -14.791
O 242.039 17.676 -27.344
O 99.718 21.509 -18.658
O 227.338 22.088 -10.848
O 75.766 13.071 -8.593
O 47.895 7.417 -26.714
O 75.684 7.611 -14.931
O 60.129 24.961 -1.960
O 237.295 3.367 -23.239
O 66.851 24.774 -20.678
O 78.974 5.952 -16.626
O 103.588 19.273 -1.030
O 59.081 14.637 -17.768
O 54.264 8.158 -7.885
O 240.612 29.364 -0.969
O 234.941 26.343 -31.409
O 55.266 15.634 -16.553
O 67.257 15.549 -3.822
O 100.493 29.863 -16.344
O 40.207 10.376 -21.161
O 242.591 13.305 -7.851
O 53.503 26.372 -0.598
O 82.573 5.047 -20.540
O 47.419 17.499 -8.035
O 70.852 6.044 -23.451
O 235.293 4.731 -0.900
O 56.849 23.553 -26.028
O 85.585 16.174 -1.400
O 83.210 19.644 -19.584
O 220.519 30.108 -14.913
O 225.395 3.070 -0.368
O 88.500 29.331 -30.169
O 88.407 20.455 -16.502
O 70.757 29.622 -24.738
O 102.644 6.884 -27.369
O 219.583 17.366 -24.889
O 241.396 26.587 -18.854
O 69.490 26.610 -25.929
C 201.313 23.454 -12.888
O 200.413 24.143 -12.639
O 202.212 22.765 -13.137
C 133.745 29.407 -14.916
O 134.664 29.621 -14.241
O 132.826 29.194 -15.591
C 174.578 30.911 -30.146
O 174.183 29.872 -29.813
O 174.972 0.518 -30.480
C 201.938 8.478 -8.537
O 203.060 8.684 -8.748
O 200.816 8.272 -8.327
C 214.181 9.268 -3.163
O 214.199 8.214 -3.648
O 214.163 10.321 -2.678
C 168.801 4.357 -29.581
O 169.378 4.250 -28.580
O 168.225 4.464 -30.582
C 213.514 22.920 -12.951
O 212.844 23.711 -13.473
O 214.184 22.130 -12.429
C 160.678 9.782 -27.990
O 161.241 9.027 -28.666
O 160.114 10.537 -27.313
C 150.692 15.469 -0.188
O 150.677 14.698 -1.055
O 150.707 16.240 -30.754
C 153.910 3.591 -26.165
O 155.011 3.244 -26.273
O 152.808 3.939 -26.056
C 162.220 24.187 -15.614
O 162.909 24.709 -16.388
O 161.531 23.665 -14.841
C 214.885 16.299 -20.633
O 214.347 15.278 -20.509
O 215.424 17.319 -20.756
C 139.069 11.025 -29.860
O 138.608 10.682 -28.852
O 139.530 11.369 -30.867
C 135.775 24.325 -18.800
O 136.063 25.061 -17.951
O 135.488 23.590 -19.650
C 172.610 3.160 -29.004
O 172.219 2.482 -29.860
O 173.002 3.837 -28.147
C 214.478 7.084 -6.775
O 214.513 8.168 -7.186
O 214.443 6.000 -6.364
C 196.017 7.120 -3.089
O 196.115 7.690 -4.095
O 195.919 6.550 -2.083
C 172.700 16.810 -23.359
O 172.702 17.296 -22.306
O 172.698 16.324 -24.413
C 155.987 2.906 -4.165
O 155.344 3.872 -4.165
O 156.629 1.940 -4.165
C 215.344 29.907 -28.588
O 215.970 29.993 -29.561
O 214.719 29.821 -27.614
C 132.174 13.273 -16.881
O 132.971 14.094 -17.076
O 131.378 12.453 -16.686
C 213.288 6.654 -29.286
O 213.911 7.443 -28.707
O 212.666 5.865 -29.865
C 127.337 26.846 -13.146
O 127.120 27.759 -12.464
O 127.554 25.933 -13.828
C 211.879 14.183 -30.726
O 212.896 13.948 -30.221
O 210.862 14.419 -31.232
C 186.319 3.289 -24.019
O 186.125 2.199 -23.673
O 186.514 4.379 -24.365
C 110.995 10.083 -17.248
O 112.011 10.239 -16.711
O 109.980 9.927 -17.786
C 109.689 1.059 -8.677
O 109.311 0.052 -8.243
O 110.066 2.067 -9.111
C 106.678 21.572 -4.933
O 106.689 21.169 -6.020
O 106.666 21.975 -3.845
C 234.964 15.006 -20.510
O 236.064 15.315 -20.709
O 233.864 14.696 -20.310
C 103.882 5.294 -23.355
O 104.596 6.001 -23.935
O 103.169 4.587 -22.775
C 171.974 15.428 -14.717
O 172.047 14.275 -14.823
O 171.900 16.581 -14.612
C 214.948 22.161 -19.832
O 213.915 22.041 -19.319
O 215.981 22.281 -20.346
C 205.892 20.783 -26.029
O 205.372 21.820 -26.008
O 206.411 19.746 -26.050
C 114.627 21.653 -18.342
O 115.540 22.049 -18.938
O 113.714 21.258 -17.745
C 197.901 8.606 -21.016
O 198.878 9.203 -21.205
O 196.925 8.009 -20.828
C 214.973 15.876 -16.502
O 214.588 15.344 -15.545
O 215.357 16.408 -17.458
C 167.440 26.545 -5.149
O 167.894 25.887 -5.990
O 166.986 27.202 -4.308
C 117.105 27.294 -22.581
O 116.368 26.547 -22.085
O 117.842 28.041 -23.076
C 110.696 26.983 -25.994
O 111.638 27.343 -25.421
O 109.754 26.623 -26.567
C 159.536 25.593 -21.852
O 160.546 25.851 -21.343
O 158.526 25.336 -22.361
C 162.681 4.566 -11.458
O 162.204 5.219 -10.627
O 163.158 3.912 -12.290
C 109.243 19.175 -28.979
O 109.374 18.115 -29.431
O 109.112 20.235 -28.527
C 126.479 1.460 -10.280
O 126.499 2.158 -9.353
O 126.459 0.763 -11.206
C 155.170 30.191 -27.004
O 154.888 29.602 -27.963
O 155.452 30.780 -26.045
C 112.677 28.574 -17.372
O 112.321 29.265 -18.233
O 113.032 27.883 -16.511
C 186.660 10.480 -18.314
O 185.783 9.832 -17.919
O 187.538 11.127 -18.709
C 209.954 16.821 -17.159
O 210.905 17.021 -16.526
O 209.003 16.621 -17.793
C 156.550 6.901 -30.582
O 155.964 7.902 -30.586
O 157.135 5.899 -30.579
C 215.248 20.356 -24.093
O 216.280 20.664 -23.663
O 214.215 20.048 -24.523
C 143.362 27.398 -15.207
O 144.311 27.592 -15.846
O 142.414 27.204 -14.568
C 111.038 23.163 -7.638
O 111.886 22.559 -8.149
O 110.189 23.767 -7.128
C 213.308 29.845 -9.128
O 213.811 28.924 -8.633
O 212.806 30.766 -9.624
C 212.575 14.993 -12.836
O 213.164 14.694 -11.882
O 211.986 15.292 -13.789
C 164.002 31.267 -14.675
O 164.475 0.883 -14.524
O 163.528 30.220 -14.826
C 118.841 23.037 -6.753
O 118.488 22.851 -5.663
O 119.194 23.224 -7.842
C 116.649 27.659 -16.995
O 116.036 27.751 -17.976
O 117.262 27.568 -16.014
C 180.735 26.644 -29.920
O 179.722 26.624 -29.356
O 181.748 26.663 -30.485
C 188.578 18.445 -9.892
O 187.614 18.037 -10.391
O 189.543 18.854 -9.393
C 151.663 4.030 -1.105
O 152.147 4.491 -2.053
O 151.179 3.569 -0.156
C 215.563 3.792 -31.109
O 215.779 2.786 -0.213
O 215.348 4.798 -30.573
C 129.984 2.765 -18.056
O 129.607 1.852 -17.447
O 130.361 3.678 -18.664
C 214.382 3.299 -5.508
O 214.198 2.796 -6.537
O 214.566 3.801 -4.479
C 212.668 21.885 -4.593
O 213.178 22.797 -4.089
O 212.159 20.973 -5.097
C 215.733 30.514 -4.163
O 216.183 29.455 -4.314
O 215.282 0.140 -4.013
C 209.996 13.820 -7.571
O 210.752 14.004 -6.710
O 209.241 13.636 -8.432
C 107.012 16.784 -9.807
O 107.682 15.890 -10.122
O 106.342 17.677 -9.492
C 204.037 21.081 -7.001
O 204.590 20.698 -6.056
O 203.484 21.463 -7.947
C 182.251 2.354 -8.429
O 182.892 2.760 -7.553
O 181.609 1.947 -9.306
C 210.242 8.222 -5.021
O 211.365 8.511 -5.056
O 209.119 7.933 -4.986
C 157.518 1.687 -20.855
O 158.358 2.479 -20.955
O 156.677 0.894 -20.754
C 45.179 18.190 -21.633
O 45.343 19.244 -22.089
O 45.015 17.136 -21.177
C 159.068 27.864 -6.598
O 158.959 28.987 -6.869
O 159.177 26.741 -6.328
C 78.087 25.267 -16.255
O 79.112 24.814 -15.954
O 77.062 25.719 -16.555
C 158.685 3.237 -26.953
O 158.970 4.197 -26.368
O 158.399 2.276 -27.538
C 215.980 30.258 -23.291
O 216.724 31.029 -22.849
O 215.235 29.486 -23.733
C 154.513 30.558 -30.897
O 155.550 30.132 -31.194
O 153.476 30.983 -30.599
C 150.907 6.030 -29.266
O 152.032 6.074 -29.547
O 149.783 5.985 -28.985
C 154.754 0.009 -7.437
O 154.985 30.368 -7.810
O 154.523 1.083 -7.063
C 207.677 17.508 -8.034
O 207.701 16.577 -7.342
O 207.653 18.438 -8.727
C 123.385 18.859 -5.734
O 124.355 18.543 -5.181
O 122.416 19.175 -6.287
C 236.178 13.891 -15.600
O 236.289 12.885 -16.168
O 236.068 14.896 -15.033
C 199.770 17.114 -24.561
O 200.506 17.952 -24.878
O 199.033 16.275 -24.244
C 168.476 22.512 -4.347
O 168.880 23.571 -4.103
O 168.072 21.452 -4.592
C 215.565 9.288 -14.571
O 216.008 9.016 -15.608
O 215.122 9.560 -13.534
C 108.075 23.543 -24.268
O 107.174 24.208 -23.963
O 108.975 22.878 -24.573
C 188.076 16.754 -24.744
O 187.807 15.794 -25.337
O 188.344 17.714 -24.151
C 107.857 11.448 -8.953
O 108.899 10.954 -9.080
O 106.816 11.942 -8.827
C 162.306 3.622 -19.902
O 162.694 3.073 -20.848
O 161.919 4.170 -18.956
C 142.263 9.701 -16.701
O 141.947 10.013 -15.629
O 142.578 9.390 -17.773
C 112.617 9.470 -29.096
O 112.889 10.055 -30.061
O 112.346 8.885 -28.132
C 125.085 1.719 -5.693
O 125.699 2.078 -4.777
O 124.471 1.360 -6.610
C 175.612 7.520 -1.437
O 175.885 7.775 -2.535
O 175.339 7.264 -0.339
C 190.680 17.639 -0.555
O 191.036 16.597 -0.919
O 190.324 18.681 -0.191
C 106.077 13.100 -18.446
O 105.404 12.281 -17.975
O 106.750 13.918 -18.917
C 42.773 0.798 -2.495
O 43.674 0.337 -3.060
O 41.871 1.260 -1.930
C 156.529 26.625 -20.367
O 157.298 27.091 -19.634
O 155.761 26.159 -21.101
C 215.873 13.249 -11.131
O 215.395 12.568 -10.323
O 216.350 13.931 -11.939
C 204.218 14.714 -15.976
O 204.539 14.880 -17.078
O 203.897 14.548 -14.873
C 180.482 28.800 -16.288
O 179.361 28.965 -16.039
O 181.603 28.635 -16.536
C 164.869 29.802 -9.920
O 164.239 30.620 -10.449
O 165.499 28.984 -9.391
C 205.072 11.317 -28.158
O 204.958 12.433 -28.454
O 205.186 10.201 -27.861
C 139.639 13.118 -15.966
O 140.661 12.869 -16.456
O 138.618 13.367 -15.477
C 199.672 6.878 -14.511
O 200.570 7.249 -13.878
O 198.773 6.508 -15.144
C 107.307 28.321 -11.701
O 106.954 27.991 -12.756
O 107.661 28.651 -10.647
C 110.434 14.010 -24.900
O 109.739 14.402 -25.741
O 111.130 13.618 -24.058
C 122.939 26.605 -20.241
O 123.264 25.518 -19.997
O 122.614 27.692 -20.484
C 158.222 26.277 -16.040
O 157.176 26.755 -16.187
O 159.269 25.799 -15.894
C 142.461 18.062 -28.220
O 142.598 16.915 -28.328
O 142.323 19.209 -28.113
C 170.112 3.728 -25.346
O 171.219 4.060 -25.446
O 169.005 3.396 -25.246
C 216.589 4.354 -10.097
O 217.200 4.732 -11.007
O 215.977 3.975 -9.186
C 212.723 10.527 -0.331
O 213.026 9.692 -31.018
O 212.419 11.363 -1.076
C 164.184 25.243 -7.734
O 163.290 24.760 -8.293
O 165.078 25.726 -7.175
C 107.696 9.721 -14.117
O 107.593 10.857 -14.325
O 107.799 8.584 -13.909
C 207.373 16.079 -0.112
O 206.771 15.165 -31.159
O 207.974 16.993 -0.496
C 71.025 13.234 -31.285
O 71.597 12.676 -30.444
O 70.453 13.793 -0.693
C 110.180 28.774 -21.455
O 109.278 28.806 -20.727
O 111.083 28.743 -22.183
C 140.561 18.053 -16.778
O 140.201 17.898 -17.870
O 140.921 18.208 -15.687
C 108.221 25.248 -4.784
O 108.798 26.017 -4.135
O 107.644 24.479 -5.433
C 210.678 10.549 -22.402
O 211.621 11.076 -21.978
O 209.735 10.023 -22.825
C 178.211 26.925 -20.099
O 178.015 26.534 -19.025
O 178.407 27.316 -21.174
C 168.041 22.041 -9.002
O 167.811 22.074 -10.139
O 168.272 22.008 -7.866
C 168.456 24.690 -29.788
O 169.085 23.984 -30.460
O 167.828 25.397 -29.116
C 210.022 15.981 -27.065
O 209.423 15.983 -26.072
O 210.621 15.979 -28.059
C 175.616 2.264 -12.055
O 174.762 1.480 -12.092
O 176.471 3.047 -12.017
C 135.547 29.892 -25.604
O 135.370 29.791 -24.462
O 135.725 29.991 -26.746
C 161.380 29.215 -20.248
O 162.060 29.309 -21.183
O 160.700 29.121 -19.313
C 204.221 24.461 -20.989
O 204.892 23.795 -21.661
O 203.550 25.127 -20.317
C 204.164 27.487 -2.583
O 204.940 26.995 -3.290
O 203.388 27.979 -1.875
C 155.252 25.406 -31.355
O 155.026 25.258 -1.051
O 155.478 25.555 -30.227
C 232.405 17.280 -13.390
O 232.366 18.202 -14.093
O 232.444 16.357 -12.688
C 134.960 4.035 -2.719
O 135.951 4.383 -2.228
O 133.968 3.687 -3.210
C 219.957 16.952 -14.181
O 220.748 16.160 -13.878
O 219.165 17.744 -14.484
C 206.622 12.895 -17.588
O 206.014 11.977 -17.223
O 207.229 13.813 -17.954
C 202.529 4.445 -29.809
O 203.517 3.845 -29.712
O 201.541 5.045 -29.906
C 174.919 6.111 -14.643
O 175.865 5.605 -14.202
O 173.974 6.617 -15.085
C 143.539 18.066 -21.280
O 143.541 17.497 -22.291
O 143.537 18.635 -20.269
C 189.815 11.438 -25.047
O 190.541 12.315 -25.270
O 189.088 10.562 -24.824
C 178.730 1.555 -11.738
O 178.313 0.572 -12.191
O 179.147 2.537 -11.284
C 189.620 14.550 -10.680
O 189.327 15.214 -9.776
O 189.912 13.886 -11.585
C 205.783 9.434 -16.179
O 204.960 10.030 -15.618
O 206.605 8.838 -16.741
C 214.358 11.248 -17.677
O 215.280 11.774 -18.146
O 213.437 10.722 -17.209
C 216.939 25.202 -13.043
O 216.371 24.196 -12.934
O 217.507 26.207 -13.153
C 180.992 15.264 -12.916
O 180.365 15.990 -12.265
O 181.619 14.537 -13.568
C 192.585 21.234 -26.561
O 191.637 20.652 -26.891
O 193.532 21.816 -26.230
C 184.724 11.039 -22.171
O 185.681 10.579 -21.703
O 183.768 11.498 -22.639
C 117.258 0.062 -0.180
O 116.834 31.373 -30.539
O 117.682 0.184 -1.253
C 78.111 15.114 -7.721
O 77.263 15.775 -8.158
O 78.959 14.454 -7.284
C 195.044 7.627 -11.114
O 195.931 7.528 -10.373
O 194.157 7.726 -11.855
C 102.660 5.589 -9.944
O 101.920 4.696 -9.960
O 103.399 6.483 -9.929
C 121.024 14.699 -20.033
O 122.178 14.623 -20.129
O 119.871 14.774 -19.936
C 187.633 31.130 -15.238
O 186.960 0.616 -15.014
O 188.306 30.212 -15.462
C 165.398 23.656 -19.524
O 165.677 23.660 -18.398
O 165.120 23.651 -20.651
C 205.744 15.527 -12.227
O 206.365 14.976 -13.038
O 205.124 16.077 -11.416
C 125.773 21.595 -13.443
O 125.900 22.700 -13.116
O 125.645 20.489 -13.771
C 111.849 12.853 -12.631
O 111.799 11.763 -13.026
O 111.899 13.942 -12.236
C 202.502 3.870 -24.004
O 202.604 3.289 -25.003
O 202.401 4.451 -23.005
C 178.493 11.281 -12.664
O 178.556 10.134 -12.505
O 178.430 12.429 -12.823
C 108.844 3.304 -4.904
O 107.688 3.332 -4.818
O 110.001 3.275 -4.990
C 218.360 1.614 -28.268
O 217.735 0.784 -27.753
O 218.984 2.445 -28.784
C 97.664 28.701 -6.072
O 96.738 28.091 -5.732
O 98.590 29.312 -6.413
C 143.709 7.071 -19.463
O 144.022 6.586 -18.457
O 143.396 7.557 -20.469
C 115.303 23.886 -26.713
O 116.149 23.108 -26.554
O 114.456 24.663 -26.871
C 196.578 31.309 -2.590
O 197.342 30.468 -2.357
O 195.814 0.718 -2.823
C 139.423 31.144 -26.884
O 138.946 0.765 -26.785
O 139.900 30.091 -26.984
C 216.527 19.163 -27.015
O 215.828 18.238 -26.993
O 217.226 20.089 -27.037
C 174.268 26.933 -8.233
O 174.102 26.370 -7.232
O 174.433 27.496 -9.233
C 187.083 23.223 -6.408
O 187.929 23.761 -6.992
O 186.238 22.685 -5.824
C 109.614 18.743 -12.006
O 110.050 19.815 -12.079
O 109.177 17.670 -11.934
C 121.762 23.967 -3.620
O 120.948 23.153 -3.478
O 122.577 24.781 -3.762
C 59.228 9.032 -24.045
O 59.126 9.130 -25.197
O 59.329 8.933 -22.894
C 112.027 13.887 -20.125
O 111.448 14.892 -20.156
O 112.606 12.883 -20.094
C 160.545 29.416 -13.283
O 161.071 30.422 -13.044
O 160.019 28.410 -13.523
C 182.230 12.417 -9.923
O 182.658 12.059 -10.940
O 181.802 12.775 -8.906
C 87.368 10.600 -28.855
O 87.558 10.503 -27.715
O 87.177 10.698 -29.995
C 106.725 2.949 -9.971
O 106.886 1.966 -9.378
O 106.564 3.933 -10.565
C 164.357 10.040 -18.304
O 163.434 9.490 -17.868
O 165.281 10.591 -18.739
C 168.809 21.794 -13.047
O 169.365 21.150 -12.259
O 168.253 22.439 -13.836
C 139.419 29.199 -30.925
O 138.937 28.394 -0.176
O 139.901 30.003 -30.242
C 241.165 2.332 -28.191
O 242.155 2.921 -28.328
O 240.175 1.744 -28.054
C 170.818 18.608 -30.237
O 170.527 19.009 -31.286
O 171.108 18.207 -29.188
C 215.602 10.139 -27.986
O 214.643 10.792 -28.003
O 216.561 9.487 -27.970
C 78.469 0.981 -17.128
O 77.519 1.032 -17.790
O 79.420 0.930 -16.465
C 108.307 25.838 -30.930
O 108.551 25.662 -0.618
O 108.063 26.015 -29.810
C 180.850 14.305 -26.260
O 179.883 14.937 -26.359
O 181.818 13.672 -26.161
C 215.750 27.923 -20.910
O 216.194 27.446 -21.869
O 215.306 28.400 -19.951
C 139.777 18.930 -24.522
O 139.329 19.997 -24.445
O 140.224 17.862 -24.599
C 176.944 30.879 -1.476
O 177.682 0.201 -1.957
O 176.206 30.124 -0.995
C 147.950 3.448 -19.548
O 148.727 3.322 -18.695
O 147.174 3.575 -20.401
C 171.303 14.710 -18.783
O 171.932 15.022 -19.706
O 170.673 14.398 -17.860
C 184.032 0.431 -2.721
O 184.124 30.954 -2.005
O 183.939 1.339 -3.436
C 117.949 15.829 -16.156
O 117.285 15.102 -15.542
O 118.613 16.555 -16.770
C 237.664 25.079 -15.590
O 236.881 25.686 -14.987
O 238.447 24.471 -16.193
C 145.682 24.104 -28.699
O 146.172 24.982 -29.278
O 145.193 23.227 -28.119
C 209.347 19.466 -23.862
O 209.884 19.494 -22.834
O 208.809 19.438 -24.889
C 110.211 29.339 -30.645
O 110.543 28.370 -31.188
O 109.878 30.309 -30.102
C 217.760 16.609 -11.594
O 218.796 16.098 -11.696
O 216.724 17.121 -11.492
C 214.008 12.999 -7.746
O 213.304 12.598 -8.576
O 214.713 13.400 -6.917
C 172.722 8.353 -5.285
O 173.001 7.227 -5.274
O 172.444 9.479 -5.295
C 151.877 11.457 -17.643
O 152.692 11.449 -16.818
O 151.062 11.465 -18.469
C 223.763 4.231 -11.843
O 224.141 4.371 -12.930
O 223.384 4.091 -10.755
C 203.725 25.978 -29.649
O 204.426 25.055 -29.603
O 203.024 26.901 -29.695
C 174.952 16.742 -19.814
O 175.279 17.167 -20.843
O 174.625 16.317 -18.785
C 138.250 5.680 -6.465
O 138.593 4.838 -5.744
O 137.908 6.522 -7.185
C 107.728 19.946 -17.203
O 107.104 19.332 -16.442
O 108.352 20.559 -17.965
C 163.168 6.699 -0.669
O 163.812 5.734 -0.656
O 162.524 7.664 -0.683
C 146.642 2.057 -11.788
O 147.386 2.897 -12.081
O 145.898 1.216 -11.496
C 208.386 5.812 -17.445
O 208.923 6.175 -16.483
O 207.848 5.448 -18.406
C 204.770 28.478 -27.729
O 205.499 27.620 -28.007
O 204.040 29.336 -27.451
C 182.463 9.863 -24.711
O 183.340 9.154 -24.438
O 181.585 10.571 -24.983
C 53.422 15.453 -3.585
O 52.596 15.656 -2.796
O 54.249 15.250 -4.373
C 242.424 17.430 -15.984
O 40.413 16.771 -16.338
O 241.537 18.089 -15.629
C 109.650 4.093 -0.835
O 108.923 3.886 -1.714
O 110.377 4.301 -31.387
C 210.381 17.759 -5.245
O 209.398 18.216 -5.658
O 211.364 17.302 -4.832
C 190.762 14.371 -30.234
O 190.165 13.960 -31.140
O 191.359 14.782 -29.328
C 108.523 23.299 -12.863
O 109.254 24.169 -13.093
O 107.792 22.428 -12.633
C 212.278 14.548 -24.344
O 211.509 14.137 -25.108
O 213.048 14.959 -23.579
C 153.331 25.863 -25.815
O 152.542 26.609 -25.407
O 154.120 25.116 -26.223
C 106.284 28.080 -7.481
O 106.720 27.008 -7.409
O 105.848 29.153 -7.553
C 197.610 20.379 -20.382
O 197.966 21.110 -19.555
O 197.254 19.648 -21.209
C 163.576 30.077 -6.107
O 164.304 30.896 -5.728
O 162.847 29.258 -6.487
C 112.217 0.561 -0.944
O 112.686 31.343 -1.782
O 111.747 1.211 -0.105
C 112.036 7.111 -15.134
O 112.953 6.409 -15.245
O 111.119 7.813 -15.024
C 156.717 4.241 -9.388
O 156.490 5.370 -9.533
O 156.943 3.113 -9.243
C 203.026 28.390 -13.754
O 202.746 29.016 -14.690
O 203.307 27.765 -12.818
C 124.792 21.565 -5.636
O 125.829 21.245 -6.046
O 123.755 21.885 -5.227
C 197.614 15.594 -21.454
O 198.690 15.923 -21.169
O 196.539 15.265 -21.739
C 112.320 13.718 -16.364
O 111.578 13.548 -17.239
O 113.062 13.889 -15.489
C 151.956 4.877 -10.866
O 153.030 4.495 -11.083
O 150.882 5.258 -10.650
C 202.574 19.804 -26.541
O 202.735 18.848 -27.178
O 202.413 20.760 -25.904
C 211.166 5.982 -8.822
O 211.134 4.933 -8.328
O 211.198 7.031 -9.316
C 133.442 9.528 -29.359
O 132.808 8.867 -28.648
O 134.076 10.190 -30.070
C 195.131 14.751 -17.525
O 195.665 15.286 -18.405
O 194.597 14.217 -16.644
C 207.730 5.560 -6.650
O 208.752 5.118 -6.328
O 206.707 6.003 -6.973
C 168.430 25.935 -9.757
O 167.879 26.940 -9.935
O 168.981 24.930 -9.579
C 206.414 24.555 -27.731
O 207.184 24.157 -28.502
O 205.645 24.953 -26.959
C 99.588 5.135 -4.761
O 98.523 5.056 -4.307
O 100.652 5.214 -5.215
C 146.980 14.497 -26.974
O 147.033 14.416 -28.130
O 146.928 14.578 -25.818
C 135.619 24.624 -22.620
O 135.332 23.866 -23.449
O 135.907 25.383 -21.791
C 114.774 20.249 -3.121
O 114.067 21.113 -2.807
O 115.480 19.384 -3.436
C 215.820 3.916 -26.077
O 216.847 3.869 -26.615
O 214.793 3.963 -25.540
C 154.987 19.853 -27.304
O 155.016 20.958 -27.655
O 154.959 18.747 -26.954
C 204.223 13.242 -20.116
O 205.112 12.497 -20.112
O 203.333 13.986 -20.120
C 138.867 16.899 -13.811
O 139.415 16.008 -14.310
O 138.319 17.791 -13.311
C 194.340 6.126 -20.135
O 194.609 5.751 -21.200
O 194.072 6.502 -19.071
C 200.873 29.729 -0.664
O 200.452 29.357 -1.679
O 201.293 30.099 -31.081
C 123.321 24.836 -15.085
O 123.493 24.309 -16.104
O 123.148 25.363 -14.066
C 137.391 14.268 -27.462
O 137.252 14.822 -26.452
O 137.530 13.715 -28.472
C 177.995 31.278 -17.586
O 178.003 30.511 -18.456
O 177.986 0.612 -16.716
C 46.162 14.479 -10.828
O 46.871 14.609 -11.737
O 45.454 14.349 -9.918
C 131.042 17.190 -2.804
O 132.123 17.389 -3.173
O 129.960 16.991 -2.434
C 217.762 23.894 -23.906
O 217.006 24.265 -23.108
O 218.518 23.523 -24.704
C 210.586 13.608 -18.567
O 211.321 14.506 -18.572
O 209.851 12.711 -18.561
C 189.454 13.543 -17.098
O 188.397 13.930 -17.377
O 190.512 13.156 -16.820
C 206.105 20.799 -22.437
O 206.866 21.670 -22.530
O 205.345 19.928 -22.344
C 159.417 30.097 -9.787
O 158.635 30.928 -9.578
O 160.199 29.266 -9.995
C 188.877 23.204 -21.174
O 188.940 24.001 -22.015
O 188.813 22.407 -20.334
C 105.432 30.559 -1.086
O 105.580 31.205 -0.134
O 105.284 29.913 -2.038
C 213.327 0.549 -20.477
O 212.263 0.762 -20.066
O 214.390 0.336 -20.889
C 189.911 27.128 -17.630
O 189.130 26.399 -18.082
O 190.693 27.856 -17.178
C 147.899 9.820 -1.663
O 147.678 9.366 -2.707
O 148.120 10.273 -0.618
C 112.062 10.605 -8.935
O 112.449 9.994 -8.028
O 111.675 11.216 -9.841
C 110.148 1.183 -27.914
O 109.105 1.690 -27.956
O 111.190 0.676 -27.872
C 164.711 5.613 -25.982
O 164.628 5.928 -24.869
O 164.794 5.298 -27.095
C 111.908 15.632 -6.119
O 111.464 14.635 -5.727
O 112.352 16.630 -6.510
C 173.559 21.112 -25.938
O 174.252 20.315 -25.459
O 172.866 21.910 -26.418
C 210.468 11.477 -12.444
O 210.832 12.390 -13.061
O 210.105 10.565 -11.826
C 150.524 28.791 -6.446
O 151.105 29.742 -6.766
O 149.943 27.839 -6.125
C 163.939 21.666 -7.441
O 163.642 22.483 -6.674
O 164.236 20.848 -8.208
C 113.846 2.648 -7.004
O 114.652 3.324 -6.514
O 113.040 1.972 -7.493
C 212.589 7.016 -16.133
O 213.256 7.502 -15.319
O 211.921 6.529 -16.948
C 121.732 12.819 -9.877
O 121.280 13.030 -8.830
O 122.184 12.608 -10.925
C 212.572 30.323 -3.227
O 213.179 29.408 -2.852
O 211.965 31.238 -3.602
C 151.115 4.160 -7.196
O 151.881 4.219 -6.327
O 150.349 4.101 -8.065
C 138.614 17.129 -21.219
O 139.713 17.499 -21.237
O 137.515 16.758 -21.200
C 212.581 2.526 -13.828
O 212.020 1.558 -14.135
O 213.142 3.494 -13.521
C 143.078 7.389 -2.281
O 143.961 7.149 -1.569
O 142.194 7.629 -2.993
C 108.104 30.492 -5.828
O 107.733 0.158 -5.873
O 108.475 29.394 -5.782
C 212.556 29.069 -14.864
O 212.798 28.291 -14.039
O 212.314 29.847 -15.690
C 151.233 1.046 -5.706
O 150.895 1.328 -6.780
O 151.570 0.764 -4.633
C 133.428 7.367 -16.084
O 134.239 7.706 -16.841
O 132.617 7.027 -15.328
C 198.933 27.525 -3.612
O 200.030 27.472 -3.984
O 197.836 27.578 -3.239
C 194.498 25.971 -4.326
O 195.165 26.117 -5.264
O 193.830 25.824 -3.388
C 187.272 4.675 -21.148
O 188.113 3.916 -21.395
O 186.430 5.434 -20.902
C 140.040 11.377 -24.710
O 140.010 12.373 -24.116
O 140.069 10.380 -25.304
C 212.278 8.862 -18.970
O 213.364 8.458 -19.036
O 211.193 9.267 -18.905
C 170.684 9.340 -31.343
O 169.760 9.911 -30.936
O 171.607 8.769 -0.319
C 109.685 5.062 -14.635
O 109.036 5.644 -13.870
O 110.335 4.480 -15.400
C 210.000 5.530 -1.743
O 210.040 6.618 -2.145
O 209.960 4.443 -1.341
C 172.405 19.813 -13.746
O 171.613 20.317 -14.428
O 173.197 19.309 -13.065
C 179.596 16.816 -19.320
O 178.686 16.543 -19.986
O 180.506 17.090 -18.655
C 217.285 25.845 -27.351
O 216.970 24.739 -27.198
O 217.600 26.951 -27.504
C 197.739 10.740 -4.730
O 198.535 10.196 -5.377
O 196.944 11.284 -4.084
C 152.099 7.973 -13.485
O 151.809 8.987 -13.969
O 152.390 6.959 -13.002
C 119.050 10.523 -14.231
O 118.113 10.312 -14.882
O 119.987 10.733 -13.581
C 95.181 28.575 -9.545
O 95.640 29.048 -8.591
O 94.722 28.102 -10.500
C 140.146 8.877 -5.323
O 139.438 7.961 -5.251
O 140.854 9.793 -5.394
C 182.147 4.462 -19.331
O 182.866 5.319 -19.025
O 181.427 3.605 -19.638
C 138.629 27.343 -26.644
O 138.563 27.514 -25.498
O 138.695 27.173 -27.789
C 214.261 5.952 -12.806
O 213.396 6.174 -12.066
O 215.126 5.730 -13.546
C 122.833 18.410 -26.091
O 122.582 19.393 -25.527
O 123.085 17.428 -26.654
C 112.978 25.169 -2.740
O 113.096 25.392 -1.608
O 112.861 24.945 -3.873
C 215.998 25.439 -30.057
O 215.882 26.591 -29.981
O 216.113 24.288 -30.134
C 165.896 23.650 -2.706
O 165.739 24.516 -3.462
O 166.052 22.784 -1.950
C 116.105 10.738 -17.738
O 115.881 11.457 -16.855
O 116.329 10.019 -18.620
C 199.766 6.593 -23.572
O 199.669 6.626 -24.727
O 199.864 6.561 -22.416
C 236.704 11.972 -13.011
O 237.370 12.799 -12.545
O 236.037 11.145 -13.477
C 147.316 14.727 -20.854
O 148.101 14.063 -21.391
O 146.531 15.390 -20.316
C 170.914 18.532 -3.711
O 170.505 19.617 -3.738
O 171.323 17.447 -3.683
C 129.994 10.941 -9.518
O 129.895 11.657 -8.611
O 130.094 10.224 -10.425
C 51.099 15.427 -0.397
O 50.671 16.459 -0.709
O 51.526 14.394 -0.085
C 212.300 23.693 -7.505
O 211.826 23.885 -6.464
O 212.775 23.501 -8.546
3933
Lattice="31.432 0 0 0 31.432 0 0 0 201.916" Properties=species:S:1:pos:R:3 timestep=36335000
O 57.562 4.546 -11.610
O 66.032 1.945 -16.014
O 90.129 3.673 -18.464
O 233.679 21.001 -13.760
O 78.355 19.982 -20.113
O 79.082 14.339 -29.577
O 48.371 25.016 -16.820
O 107.975 0.216 -24.998
O 57.510 19.060 -2.473
O 241.732 17.345 -3.212
O 48.417 20.236 -14.776
O 223.529 13.627 -10.153
O 57.442 20.030 -23.623
O 231.945 16.067 -1.383
O 107.613 14.799 -24.904
O 95.822 12.534 -23.098
O 107.487 18.779 -24.684
O 96.610 20.132 -24.050
O 62.283 26.024 -16.124
O 101.831 8.502 -4.433
O 67.672 11.397 -1.631
O 230.609 21.432 -17.177
O 64.264 28.297 -14.826
O 47.813 17.982 -13.493
O 224.976 24.838 -28.545
O 230.087 24.980 -7.592
O 97.435 9.889 -5.996
O 236.832 26.782 -27.312
O 100.530 3.977 -2.392
O 99.202 1.065 -16.584
O 79.602 27.903 -18.448
O 233.616 12.816 -3.153
O 238.331 16.904 -6.345
O 93.147 1.285 -12.501
O 85.866 24.662 -4.094
O 54.209 2.296 -22.213
O 226.099 3.684 -4.538
O 235.705 24.013 -7.091
O 111.284 10.237 -0.265
O 226.070 9.584 -8.601
O 92.480 3.703 -9.944
O 74.576 26.054 -29.853
O 53.378 0.468 -10.411
O 56.644 10.460 -0.903
O 78.896 7.777 -27.453
O 66.046 16.252 -30.587
O 86.551 4.066 -0.365
O 241.924 27.558 -14.816
O 115.379 21.104 -19.158
O 91.823 0.764 -16.195
O 228.126 8.412 -24.878
O 65.192 26.791 -12.429
O 222.594 22.570 -8.589
O 234.864 17.417 -10.043
O 227.948 4.157 -27.698
O 107.649 11.670 -7.946
O 51.623 20.358 -30.014
O 115.776 16.675 -22.577
O 65.701 13.495 -31.383
O 43.351 1.644 -11.040
O 65.407 17.422 -20.513
O 78.479 29.794 -24.971
O 103.443 6.404 -5.717
O 67.148 8.945 -11.959
O 67.230 27.240 -0.886
O 42.613 22.841 -21.447
O 70.937 20.544 -28.075
O 226.876 18.843 -13.529
O 68.643 25.540 -2.433
O 55.266 8.416 -13.926
O 74.481 12.191 -30.168
O 59.677 12.294 -15.715
O 56.203 17.676 -7.347
O 242.105 6.059 -5.489
O 60.251 28.687 -28.973
O 91.774 14.088 -18.334
O 59.650 3.318 -31.308
O 233.636 29.435 -16.915
O 82.492 23.917 -6.406
O 116.052 19.087 -17.613
O 109.971 22.482 -10.173
O 41.794 8.327 -6.443
O 102.351 9.228 -18.940
O 58.393 24.337 -8.161
O 59.576 8.159 -27.119
O 224.129 20.735 -6.081
O 80.538 18.101 -20.605
O 83.176 6.140 -27.171
O 115.411 13.673 -0.773
O 88.171 23.235 -13.053
O 89.908 3.139 -6.547
O 234.870 22.195 -16.272
O 98.565 29.277 -22.268
O 97.284 7.810 -0.845
O 230.587 2.458 -30.777
O 227.888 11.362 -3.817
O 52.184 6.742 -2.321
O 106.974 31.193 -20.535
O 70.105 22.671 -22.146
O 43.158 27.290 -11.133
O 109.414 16.945 -12.044
O 96.799 11.123 -18.910
O 234.967 24.007 -19.782
O 72.702 4.667 -16.746
O 240.096 21.190 -18.987
O 87.303 11.678 -18.654
O 237.777 3.762 -14.579
O 228.477 15.066 -20.432
O 60.458 18.168 -26.098
O 74.241 21.591 -7.170
O 109.931 10.373 -6.841
O 105.104 19.617 -4.919
O 78.573 8.633 -15.422
O 71.920 12.210 -1.200
O 102.276 29.878 -17.941
O 102.253 8.426 -26.928
O 56.114 10.379 -19.812
O 54.707 2.397 -28.297
O 58.914 5.093 -4.905
O 102.638 28.291 -8.039
O 85.983 29.742 -3.318
O 81.449 0.644 -10.798
O 92.264 5.427 -19.074
O 238.408 1.677 -21.648
O 64.183 5.516 -8.547
O 96.613 0.468 -2.118
O 72.279 20.247 -17.135
O 222.100 27.404 -9.665
O 237.184 6.170 -25.468
O 223.064 10.620 -24.316
O 234.452 6.971 -27.073
O 55.498 5.593 -20.663
O 72.992 0.686 -29.213
O 67.876 3.216 -26.651
O 239.495 7.425 -26.423
O 62.573 10.347 -26.519
O 95.964 6.858 -21.545
O 79.045 28.986 -6.063
O 84.358 26.877 -8.825
O 228.891 20.932 -22.126
O 84.262 29.279 -31.337
O 72.609 5.972 -26.855
O 89.540 12.594 -17.602
O 80.806 27.328 -20.903
O 81.193 6.677 -11.113
O 97.555 16.572 -26.781
O 238.599 4.241 -28.507
O 96.205 18.224 -28.470
O 53.320 6.072 -26.948
O 70.456 14.176 -20.126
O 68.205 28.393 -27.759
O 64.815 27.473 -9.720
O 240.296 17.344 -8.190
O 81.178 14.082 -12.557
O 104.171 30.191 -6.775
O 231.763 0.607 -7.607
O 91.280 28.181 -31.209
O 95.091 30.342 -10.325
O 101.759 4.658 -14.603
O 79.692 19.392 -13.390
O 101.492 24.547 -7.013
O 80.401 9.943 -19.683
O 85.784 16.369 -16.188
O 44.574 1.486 -27.991
O 222.241 23.393 -27.732
O 88.059 1.094 -16.129
O 96.874 18.710 -4.762
O 45.514 5.981 -7.373
O 40.934 1.702 -6.819
O 110.583 26.166 -24.189
O 44.394 11.781 -7.673
O 78.393 24.173 -20.412
O 44.218 22.113 -2.845
O 239.784 0.882 -29.154
O 84.493 2.689 -2.748
O 62.493 26.438 -11.557
O 71.396 21.005 -7.912
O 224.310 9.365 -17.182
O 106.119 11.192 -4.012
O 68.081 7.713 -0.987
O 93.630 29.703 -0.530
O 56.176 10.924 -24.746
O 55.907 28.879 -31.042
O 228.833 27.145 -11.479
O 62.902 10.279 -2.696
O 47.726 23.301 -6.939
O 64.444 9.928 -21.492
O 52.368 10.549 -24.922
O 63.078 16.071 -18.005
O 85.713 14.356 -26.530
O 76.755 15.915 -23.141
O 240.439 9.796 -2.031
O 98.159 15.721 -20.525
O 106.432 10.673 -15.840
O 98.087 22.843 -11.654
O 77.688 13.465 -25.292
O 53.748 29.096 -11.061
O 42.600 12.028 -24.135
O 70.569 29.157 -1.049
O 105.213 13.839 -7.891
O 41.277 24.666 -23.406
O 66.503 15.930 -9.309
O 100.809 15.930 -26.570
O 223.490 22.016 -14.898
O 224.003 21.058 -27.569
O 228.295 23.088 -23.633
O 105.604 12.322 -20.212
O 42.784 27.340 -0.051
O 230.196 13.068 -29.083
O 83.017 25.162 -3.953
O 235.616 4.472 -5.741
O 230.811 18.709 -10.683
O 77.867 20.594 -4.716
O 98.593 2.105 -24.114
O 112.893 12.840 -29.705
O 224.663 13.810 -3.674
O 239.921 26.447 -9.872
O 239.864 1.315 -0.765
O 52.397 4.733 -22.648
O 44.947 29.038 -16.938
O 58.256 14.600 -15.402
O 83.320 21.726 -26.802
O 84.362 20.333 -6.035
O 71.631 2.189 -25.711
O 54.017 11.069 -10.654
O 41.823 21.588 -24.416
O 103.182 31.156 -0.510
O 65.256 0.204 -24.173
O 88.129 26.493 -3.359
O 237.464 28.406 -2.234
O 42.723 7.326 -18.094
O 86.916 26.633 -7.912
O 80.656 3.372 -13.796
O 92.806 28.973 -11.499
O 236.860 4.528 -1.449
O 112.789 17.421 -15.501
O 234.219 11.384 -9.906
O 224.222 16.731 -7.233
O 81.112 22.248 -28.693
O 80.010 15.203 -19.759
O 85.112 3.362 -28.329
O 73.212 18.796 -19.108
O 76.374 9.691 -14.325
O 95.330 17.712 -20.326
O 55.593 24.089 -12.224
O 101.880 0.578 -16.278
O 58.792 29.750 -25.973
O 45.467 16.780 -14.822
O 48.435 13.036 -27.347
O 52.324 6.856 -24.307
O 67.213 27.725 -6.654
O 61.894 30.736 -10.951
O 45.575 13.166 -31.024
O 237.618 18.205 -30.230
O 225.367 18.056 -27.055
O 40.983 29.748 -7.186
O 85.478 25.506 -20.523
O 54.201 24.145 -9.900
O 232.797 26.982 -11.428
O 238.809 16.169 -3.150
O 226.496 23.973 -3.568
O 65.318 9.413 -5.612
O 49.613 28.494 -1.511
O 92.859 30.044 -4.334
O 235.108 23.799 -10.811
O 104.421 26.175 -29.317
O 77.354 5.700 -1.848
O 88.352 14.829 -22.467
O 92.746 19.535 -8.956
O 84.478 20.729 -0.271
O 91.635 4.183 -24.373
O 105.851 6.574 -3.068
O 234.035 9.446 -27.373
O 92.483 1.982 -30.319
O 84.329 19.655 -23.695
O 228.086 15.136 -5.867
O 95.644 9.728 -2.677
O 61.499 16.296 -22.685
O 80.758 8.967 -29.015
O 67.964 29.596 -4.733
O 87.433 18.337 -8.972
O 47.531 29.481 -15.300
O 97.256 24.256 -8.956
O 69.873 11.258 -5.643
O 72.323 23.316 -10.618
O 51.096 13.162 -28.492
O 63.276 23.627 -7.458
O 58.092 3.973 -19.939
O 52.788 10.235 -20.978
O 85.644 1.330 -23.968
O 107.690 13.945 -16.839
O 229.248 16.881 -25.265
O 80.485 20.632 -3.894
O 233.537 0.177 -21.849
O 235.199 3.555 -13.726
O 227.074 19.738 -19.659
O 108.032 31.336 -27.757
O 52.207 3.727 -27.787
O 115.483 15.242 -29.821
O 52.776 25.173 -3.069
O 90.192 9.848 -6.454
O 225.986 14.278 -26.020
O 57.154 26.887 -1.064
O 67.939 16.302 -20.358
O 84.171 23.262 -21.382
O 60.408 15.967 -16.387
O 53.762 28.117 -3.525
O 113.050 8.139 -1.639
O 110.447 10.002 -16.628
O 241.806 6.476 -19.334
O 66.480 21.531 -28.885
O 56.915 24.740 -25.766
O 238.680 3.431 -18.463
O 60.641 5.837 -22.312
O 72.395 30.427 -26.454
O 100.458 29.637 -19.981
O 71.968 19.475 -2.437
O 58.756 17.258 -14.363
O 64.873 16.477 -3.860
O 83.479 14.706 -1.834
O 81.374 29.472 -16.719
O 225.375 5.547 -22.491
O 49.793 8.320 -14.332
O 40.553 10.668 -14.596
O 69.665 16.395 -27.221
O 241.097 4.730 -16.517
O 91.611 14.960 -25.169
O 240.573 11.746 -26.121
O 43.577 13.365 -29.093
O 76.381 23.768 -22.267
O 110.024 24.761 -15.218
O 65.179 3.676 -17.918
O 105.746 19.223 -20.882
O 95.239 7.224 -13.397
O 72.341 23.838 -4.208
O 223.899 23.362 -6.166
O 105.759 26.097 -5.735
O 109.957 30.431 -6.203
O 71.128 7.219 -7.013
O 109.200 11.974 -3.211
O 46.373 9.219 -29.445
O 99.441 11.065 -10.307
O 118.180 15.149 -30.518
O 55.909 13.465 -15.040
O 238.636 17.100 -13.510
O 99.611 27.272 -26.062
O 45.502 20.779 -28.049
O 63.991 10.045 -18.751
O 90.107 22.528 -24.960
O 95.804 0.010 -15.951
O 89.977 10.185 -22.026
O 95.393 26.873 -2.104
O 113.356 14.648 -2.322
O 57.503 7.996 -20.870
O 225.513 0.078 -15.531
O 50.539 17.198 -10.583
O 220.259 23.905 -14.113
O 110.394 4.636 -26.824
O 224.914 19.799 -3.002
O 113.854 8.795 -13.739
O 225.583 6.798 -24.917
O 107.085 23.532 -6.480
O 60.425 28.180 -20.346
O 109.306 24.184 -20.236
O 78.450 24.968 -11.736
O 42.244 26.288 -25.578
O 231.054 10.981 -23.661
O 81.270 18.168 -4.501
O 99.230 0.916 -13.782
O 40.623 13.815 -22.792
O 93.903 20.004 -23.615
O 106.277 4.501 -9.384
O 50.192 24.712 -3.895
O 109.689 5.967 -24.549
O 42.172 5.407 -29.178
O 74.800 5.320 -7.281
O 51.084 8.853 -7.852
O 108.803 6.665 -5.148
O 52.513 15.773 -9.745
O 86.201 6.269 -29.960
O 51.931 6.774 -20.420
O 104.044 18.251 -23.242
O 233.636 1.689 -9.100
O 80.870 27.151 -29.607
O 107.065 29.518 -23.546
O 104.013 19.457 -14.475
O 91.535 27.693 -22.183
O 225.663 11.826 -12.736
O 226.652 7.115 -19.652
O 98.627 2.653 -21.469
O 63.760 0.127 -28.867
O 79.540 16.194 -27.476
O 101.081 0.481 -27.512
O 79.916 10.877 -2.807
O 45.488 14.274 -4.320
O 69.862 18.118 -7.245
O 73.206 5.719 -19.126
O 62.172 6.109 -25.558
O 97.581 8.191 -19.260
O 234.066 27.459 -18.625
O 99.289 12.348 -30.595
O 90.203 5.891 -6.381
O 62.397 18.369 -8.114
O 49.875 3.349 -22.888
O 41.934 18.438 -20.271
O 239.215 14.434 -25.454
O 221.211 23.182 -20.735
O 92.964 30.704 -24.818
O 107.678 23.775 -30.900
O 91.709 6.226 -28.259
O 58.939 26.085 -15.820
O 48.776 20.301 -23.978
O 233.547 20.295 -20.850
O 227.607 29.216 -23.141
O 55.136 23.614 -14.797
O 45.097 5.392 -17.479
O 87.031 7.860 -13.068
O 48.149 21.210 -5.014
O 67.350 29.717 -2.008
O 80.356 4.128 -24.329
O 73.695 14.188 -23.276
O 63.870 19.052 -1.117
O 237.369 31.098 -30.539
O 101.437 11.029 -29.755
O 78.775 0.490 -5.220
O 103.790 29.907 -29.671
O 92.367 26.293 -12.129
O 53.856 14.633 -22.451
O 77.726 25.052 -29.318
O 240.373 22.328 -11.331
O 102.894 21.564 -13.369
O 58.574 27.683 -13.484
O 88.483 1.056 -13.325
O 92.912 23.934 -9.162
O 67.896 26.405 -29.660
O 232.931 17.718 -12.850
O 98.028 7.211 -13.368
O 79.015 13.088 -13.739
O 47.464 2.362 -11.661
O 102.268 26.791 -27.031
O 93.819 3.338 -14.316
O 44.681 1.862 -1.608
O 82.972 16.006 -4.404
O 233.854 9.682 -5.700
O 55.435 20.766 -13.987
O 62.239 3.230 -3.697
O 222.597 26.871 -28.875
O 106.428 6.396 -30.295
O 108.765 12.183 -22.216
O 50.963 29.547 -14.702
O 95.090 2.458 -29.699
O 71.693 14.948 -1.821
O 99.588 8.807 -2.123
O 55.728 30.793 -14.366
O 78.085 1.025 -24.257
O 76.158 16.916 -16.591
O 42.166 15.384 -20.932
O 98.362 3.659 -29.830
O 61.106 3.687 -24.017
O 105.726 16.557 -17.664
O 92.892 6.713 -25.435
O 83.765 13.432 -11.832
O 64.319 12.565 -15.960
O 233.228 25.536 -7.714
O 82.461 4.366 -11.967
O 103.238 25.168 -4.113
O 48.138 23.873 -20.641
O 89.780 9.871 -19.167
O 105.808 28.797 -31.330
O 221.057 3.341 -0.700
O 61.616 14.996 -1.404
O 58.701 2.646 -24.674
O 105.642 24.580 -20.952
O 99.451 22.373 -6.002
O 48.170 27.021 -20.664
O 228.777 17.219 -11.956
O 98.859 18.899 -2.285
O 53.427 27.517 -21.472
O 233.389 10.806 -12.447
O 60.048 25.687 -21.726
O 69.437 30.880 -6.497
O 229.359 27.511 -8.767
O 91.265 11.303 -14.700
O 91.559 18.382 -25.702
O 113.152 18.548 -3.009
O 94.712 13.165 -25.800
O 73.188 30.378 -1.255
O 71.377 29.494 -8.135
O 67.775 25.559 -11.947
O 43.992 31.023 -7.709
O 103.285 11.792 -0.508
O 230.132 18.445 -16.032
O 82.582 27.976 -4.209
O 76.748 22.710 -1.387
O 104.647 6.994 -9.751
O 237.956 24.439 -28.302
O 100.981 18.307 -17.783
O 235.975 14.055 -31.155
O 82.140 15.660 -7.344
O 64.364 31.443 -14.825
O 56.437 29.647 -24.504
O 75.882 12.207 -15.107
O 96.815 20.381 -29.777
O 224.455 20.917 -9.926
O 51.125 31.193 -28.462
O 104.190 8.701 -3.030
O 65.505 27.928 -21.571
O 99.646 5.970 -20.996
O 94.270 10.656 -27.004
O 45.380 28.861 -7.093
O 83.603 17.027 -25.455
O 47.562 11.572 -30.210
O 64.398 24.656 -9.669
O 96.881 15.846 -8.042
O 58.825 1.307 -29.479
O 60.408 7.389 -20.100
O 99.741 13.730 -8.046
O 86.736 19.733 -22.275
O 93.621 24.037 -16.220
O 68.506 1.139 -16.527
O 82.708 11.797 -5.246
O 227.874 7.425 -8.473
O 53.355 26.849 -9.434
O 72.215 24.978 -17.390
O 66.035 20.175 -25.560
O 224.531 30.964 -10.835
O 56.368 17.789 -15.853
O 79.398 12.640 -9.324
O 226.625 23.867 -0.060
O 67.450 27.008 -9.298
O 41.275 18.991 -17.097
O 108.355 1.515 -12.581
O 112.282 24.592 -20.971
O 54.165 29.949 -22.848
O 115.350 21.433 -31.198
O 226.703 8.158 -3.638
O 94.720 3.931 -27.417
O 97.998 3.852 -3.168
O 82.890 2.815 -15.805
O 48.599 26.855 -14.782
O 226.226 13.088 -6.136
O 80.225 1.783 -25.780
O 72.827 22.494 -21.581
O 221.050 24.474 -10.024
O 97.502 25.979 -0.324
O 46.659 19.863 -11.703
O 90.695 1.219 -19.743
O 95.558 20.111 -8.730
O 224.940 30.814 -28.828
O 63.358 2.597 -26.825
O 238.172 15.424 -29.828
O 228.670 30.900 -0.534
O 97.547 12.850 -12.007
O 55.636 19.545 -30.630
O 62.213 16.092 -9.726
O 71.925 12.063 -20.081
O 105.960 5.188 -22.223
O 83.322 3.512 -5.190
O 87.650 20.790 -26.085
O 101.629 28.231 -29.425
O 76.908 17.515 -14.053
O 91.017 27.201 -17.390
O 43.413 6.210 -27.055
O 110.981 28.434 -22.895
O 44.697 12.130 -12.058
O 241.729 23.600 -15.755
O 56.025 30.417 -6.700
O 41.604 20.880 -2.700
O 60.358 1.769 -1.983
O 71.703 18.080 -4.790
O 113.784 11.054 -5.095
O 242.047 25.982 -20.994
O 58.814 27.651 -18.099
O 98.516 16.014 -15.453
O 91.382 3.347 -28.157
O 57.209 22.320 -30.189
O 69.341 4.709 -8.435
O 237.933 14.156 -6.876
O 76.704 7.336 -17.894
O 71.543 2.124 -18.945
O 57.024 20.696 -26.649
O 87.844 8.119 -15.741
O 227.340 20.648 -9.608
O 70.605 29.576 -14.767
O 45.117 1.440 -13.181
O 101.547 4.976 -8.525
O 98.192 17.197 -12.112
O 98.491 30.275 -18.011
O 48.521 16.647 -30.422
O 71.548 4.437 -11.236
O 111.663 27.834 -14.893
O 87.878 28.393 -22.878
O 237.274 25.920 -10.008
O 72.829 16.651 -22.330
O 224.917 28.737 -9.301
O 103.800 4.601 -11.878
O 58.462 17.142 -10.829
O 86.980 24.173 -6.508
O 222.947 5.245 -3.178
O 107.970 10.979 -11.330
O 233.171 10.077 -29.960
O 74.802 29.956 -4.921
O 100.536 2.496 -0.032
O 86.498 13.763 -11.124
O 54.830 23.087 -27.239
O 82.123 0.457 -3.557
O 95.646 10.527 -31.412
O 228.556 7.978 -30.194
O 225.278 2.879 -15.871
O 231.573 26.612 -24.769
O 92.603 16.100 -16.070
O 112.021 9.582 -8.649
O 229.092 6.992 -15.313
O 236.457 6.306 -15.850
O 105.685 29.758 -15.677
O 48.589 29.756 -17.856
O 97.125 11.614 -3.845
O 110.978 5.032 -4.856
O 47.577 4.598 -2.653
O 42.592 15.511 -2.119
O 110.882 15.020 -5.604
O 91.770 15.559 -8.355
O 223.098 14.093 -26.463
O 59.966 20.990 -27.352
O 112.691 18.125 -7.547
O 234.800 8.649 -21.634
O 72.341 9.971 -11.220
O 68.653 28.537 -11.268
O 99.636 6.550 -6.718
O 108.817 23.694 -17.590
O 226.911 1.453 -1.830
O 232.894 3.449 -3.425
O 68.830 2.537 -6.913
O 108.236 2.555 -27.153
O 220.926 26.585 -23.861
O 87.016 27.918 -26.126
O 72.841 13.579 -12.224
O 74.216 2.481 -22.347
O 57.762 12.629 -12.372
O 78.521 12.479 -20.256
O 53.159 9.335 -27.302
O 79.764 11.774 -28.624
O 84.449 26.884 -1.442
O 75.215 4.135 -19.929
O 76.531 20.940 -15.530
O 59.791 8.771 -12.880
O 239.298 24.200 -4.636
O 98.119 7.524 -16.268
O 83.712 28.055 -16.617
O 97.472 0.368 -30.395
O 76.597 0.723 -13.288
O 226.308 22.356 -20.710
O 62.195 23.139 -3.042
O 230.150 5.406 -22.866
O 224.987 29.823 -26.245
O 89.637 16.574 -18.086
O 236.830 22.375 -20.350
O 96.797 10.517 -27.943
O 96.684 17.108 -17.973
O 235.286 20.785 -18.752
O 113.132 16.289 -4.641
O 63.501 4.964 -6.098
O 56.331 22.682 -7.652
O 91.097 18.226 -1.209
O 111.544 14.517 -16.875
O 93.605 17.837 -27.520
O 69.338 25.795 -7.514
O 228.153 11.165 -15.849
O 41.751 2.109 -15.932
O 109.759 24.912 -11.127
O 63.851 8.979 -28.485
O 57.677 0.770 -12.317
O 239.851 22.218 -6.658
O 234.883 4.216 -23.570
O 57.434 23.909 -16.196
O 61.357 9.954 -29.938
O 101.941 17.813 -3.939
O 75.137 17.574 -11.791
O 113.763 23.160 -18.492
O 70.688 11.652 -12.710
O 95.540 6.642 -17.959
O 60.457 23.600 -17.384
O 82.525 26.562 -24.426
O 96.939 22.638 -4.364
O 40.963 6.048 -25.105
O 79.658 3.442 -18.740
O 240.553 24.322 -24.439
O 50.136 25.120 -23.691
O 238.636 9.984 -27.043
O 51.279 30.022 -17.284
O 53.593 21.738 -16.364
O 234.874 20.106 -4.171
O 76.190 26.571 -4.464
O 101.866 12.600 -3.260
O 68.008 14.659 -18.230
O 239.966 24.749 -19.440
O 112.892 13.203 -23.885
O 90.202 29.225 -6.209
O 70.666 19.997 -10.265
O 48.927 23.260 -1.750
O 60.908 10.695 -9.404
O 234.020 28.477 -14.473
O 78.802 30.226 -27.762
O 228.300 3.830 -3.001
O 51.520 8.457 -0.364
O 229.308 25.933 -18.545
O 66.434 8.148 -20.500
O 77.114 2.602 -6.437
O 74.830 20.296 -27.788
O 90.996 2.635 -22.075
O 111.444 25.844 -28.573
O 47.487 30.463 -1.784
O 97.974 13.672 -5.564
O 82.019 9.648 -14.518
O 236.554 30.365 -17.372
O 77.676 19.467 -29.325
O 55.665 25.345 -17.952
O 230.897 30.013 -17.568
O 54.119 6.216 -12.774
O 101.427 12.370 -19.390
O 55.407 1.185 -24.488
O 233.610 0.738 -11.689
O 110.496 31.130 -19.336
O 68.242 28.373 -24.952
O 74.810 7.530 -15.771
O 80.964 18.027 -24.350
O 66.415 7.469 -27.997
O 47.800 13.619 -8.644
O 46.575 25.387 -5.594
O 77.736 1.198 -31.375
O 91.085 18.597 -21.984
O 233.483 17.398 -7.325
O 52.551 18.769 -6.181
O 103.709 10.699 -25.915
O 99.826 7.248 -10.641
O 230.572 18.669 -22.460
O 242.253 14.939 -11.383
O 234.801 28.058 -7.201
O 43.818 17.432 -3.544
O 240.988 11.193 -4.301
O 84.684 26.489 -11.968
O 103.285 30.196 -10.447
O 236.801 7.385 -7.533
O 76.132 3.500 -17.479
O 45.707 9.439 -8.832
O 76.549 22.591 -28.580
O 234.193 6.934 -24.301
O 40.877 30.504 -31.212
O 84.141 28.882 -25.681
O 83.328 22.274 -24.001
O 71.851 9.290 -15.831
O 223.730 23.202 -21.837
O 69.390 12.926 -10.631
O 228.495 9.441 -27.512
O 54.047 16.096 -17.806
O 92.823 9.837 -30.542
O 99.116 5.171 -18.453
O 224.299 13.259 -30.359
O 81.554 30.676 -19.350
O 43.049 21.189 -6.852
O 48.382 19.125 -28.565
O 109.203 18.723 -4.269
O 61.353 13.240 -5.253
O 223.050 7.615 -28.531
O 44.004 24.995 -9.513
O 90.677 0.117 -29.167
O 232.422 16.135 -9.911
O 63.401 27.636 -31.166
O 235.762 13.483 -10.973
O 58.977 26.930 -10.990
O 97.824 12.208 -14.789
O 65.611 20.251 -4.606
O 77.936 9.115 -30.037
O 92.907 25.606 -1.517
O 48.285 1.168 -17.617
O 98.183 25.143 -20.642
O 88.793 8.390 -2.268
O 95.501 22.683 -28.476
O 76.979 18.676 -26.536
O 96.082 19.118 -0.594
O 231.411 11.516 -18.174
O 110.906 26.858 -2.663
O 102.602 20.608 -23.624
O 227.443 0.852 -20.392
O 106.457 4.408 -17.601
O 228.504 7.910 -13.018
O 55.512 26.679 -24.161
O 92.829 30.426 -13.979
O 56.814 3.525 -3.448
O 223.821 1.079 -30.889
O 51.018 7.516 -28.816
O 237.347 20.960 -11.851
O 107.066 12.133 -13.706
O 57.449 24.345 -3.165
O 63.030 18.362 -24.583
O 101.998 13.061 -21.966
O 232.829 28.400 -23.217
O 103.489 23.299 -23.800
O 93.550 10.781 -22.562
O 221.070 19.116 -19.538
O 77.134 1.494 -8.931
O 59.308 9.356 -17.314
O 69.321 30.766 -30.676
O 240.825 23.042 -26.951
O 92.825 0.478 -2.276
O 83.836 6.238 -18.421
O 75.355 16.556 -25.284
O 79.066 22.029 -15.353
O 47.833 5.379 -17.309
O 55.567 2.744 -11.695
O 227.932 29.857 -27.063
O 88.171 1.971 -23.273
O 112.203 10.591 -20.537
O 70.427 7.224 -2.408
O 102.518 1.113 -8.460
O 54.142 26.651 -6.335
O 93.208 0.771 -7.789
O 105.649 0.804 -4.005
O 230.857 2.324 -5.353
O 232.360 25.286 -1.481
O 86.580 10.543 -16.188
O 69.558 22.370 -30.742
O 105.977 0.401 -17.746
O 51.172 24.950 -17.105
O 87.161 30.245 -17.096
O 49.172 7.029 -0.278
O 101.158 21.187 -3.844
O 93.896 25.013 -29.516
O 108.500 15.565 -18.669
O 224.081 10.975 -10.887
O 46.428 4.073 -19.833
O 71.211 0.785 -22.162
O 223.877 30.756 -7.410
O 91.165 17.929 -7.231
O 105.144 4.221 -0.182
O 41.408 21.985 -18.512
O 62.463 17.926 -4.065
O 95.281 30.207 -29.906
O 242.315 17.131 -24.052
O 107.688 19.747 -1.523
O 69.478 31.248 -12.599
O 60.082 13.399 -31.243
O 59.838 19.192 -17.561
O 57.838 6.018 -23.222
O 241.099 17.031 -17.164
O 80.256 0.950 -1.074
O 42.281 5.354 -11.120
O 228.546 23.180 -9.293
O 85.588 16.473 -1.915
O 83.251 6.477 -4.866
O 231.501 28.851 -13.594
O 111.399 23.581 -23.474
O 81.511 27.548 -6.685
O 65.539 30.488 -5.571
O 63.818 1.651 -0.045
O 75.532 1.429 -24.293
O 66.817 23.087 -23.154
O 65.051 17.857 -26.506
O 86.122 28.204 -13.474
O 68.285 11.902 -22.126
O 68.074 19.913 -14.905
O 228.239 13.896 -16.400
O 87.882 19.143 -2.016
O 60.108 13.186 -8.485
O 229.203 28.549 -25.200
O 69.170 18.720 -1.957
O 91.179 7.159 -10.885
O 107.160 17.412 -29.625
O 55.449 12.699 -21.032
O 93.922 14.045 -30.490
O 61.909 12.673 -28.760
O 41.834 18.121 -1.431
O 62.272 13.761 -19.027
O 226.110 5.183 -14.498
O 75.950 14.502 -3.170
O 241.539 7.174 -13.705
O 58.145 23.430 -11.017
O 234.734 4.827 -17.133
O 103.776 11.313 -18.020
O 50.168 9.478 -20.604
O 82.744 22.919 -19.023
O 111.930 10.570 -23.455
O 93.873 15.282 -24.007
O 61.366 7.042 -29.050
O 77.836 22.734 -26.248
O 236.063 20.260 -1.630
O 56.834 18.371 -28.204
O 234.653 25.304 -22.360
O 98.507 30.478 -11.606
O 50.892 22.983 -25.515
O 45.514 29.860 -31.026
O 236.684 31.387 -1.733
O 61.921 11.596 -17.539
O 95.057 27.911 -12.929
O 89.118 4.411 -14.441
O 50.567 19.607 -8.437
O 237.421 25.275 -12.940
O 64.338 3.789 -1.726
O 79.959 13.489 -16.362
O 68.626 1.866 -19.478
O 110.316 20.435 -1.920
O 94.505 7.188 -5.986
O 93.053 0.064 -19.635
O 239.456 18.778 -4.553
O 95.477 13.061 -7.275
O 70.932 28.519 -24.433
O 233.257 14.733 -7.553
O 236.252 20.243 -26.079
O 233.961 7.391 -12.636
O 84.436 18.457 -20.108
O 48.081 1.356 -28.991
O 111.824 20.570 -28.694
O 83.334 11.696 -26.517
O 70.333 31.359 -24.641
O 108.532 10.432 -27.907
O 240.875 11.025 -16.780
O 226.745 7.171 -17.020
O 80.480 29.156 -11.698
O 94.869 17.748 -24.937
O 100.789 22.579 -17.562
O 235.648 20.745 -30.555
O 78.349 5.416 -17.030
O 99.710 16.025 -18.175
O 57.969 1.148 -9.416
O 84.725 0.138 -21.640
O 40.488 24.654 -11.590
O 237.257 3.027 -10.027
O 228.459 4.151 -24.839
O 55.376 4.191 -30.479
O 64.785 27.305 -2.024
O 221.689 23.871 -24.818
O 86.591 21.590 -16.060
O 112.433 17.199 -28.340
O 241.211 9.802 -6.495
O 62.958 19.732 -11.572
O 96.225 0.814 -24.051
O 239.886 30.417 -7.379
O 237.891 30.841 -20.253
O 93.104 21.270 -13.574
O 57.391 22.232 -20.988
O 74.452 10.894 -26.169
O 114.450 19.021 -9.535
O 89.016 7.198 -19.400
O 101.988 12.552 -24.673
O 70.996 21.594 -3.806
O 73.322 2.077 -3.885
O 106.227 12.766 -27.713
O 79.959 7.141 -7.321
O 70.830 28.561 -3.992
O 74.766 10.226 -17.475
O 110.695 13.240 -13.315
O 226.510 24.936 -10.131
O 68.697 15.968 -1.898
O 241.967 20.441 -12.162
O 51.635 19.107 -12.228
O 95.719 16.150 -15.270
O 66.397 10.980 -30.480
O 88.701 14.584 -26.336
O 45.224 5.404 -10.666
O 56.623 27.541 -28.852
O 225.551 30.076 -0.234
O 225.309 10.008 -1.861
O 60.658 9.274 -24.924
O 226.275 27.184 -28.356
O 72.209 13.770 -4.763
O 44.424 25.621 -19.629
O 59.834 19.805 -29.780
O 44.407 25.728 -3.122
O 73.941 5.440 -24.393
O 51.148 30.853 -7.765
O 238.099 11.293 -2.396
O 96.121 24.892 -12.190
O 96.894 29.049 -14.971
O 88.347 0.318 -20.835
O 102.512 0.159 -21.066
O 239.947 2.847 -10.933
O 79.103 5.099 -30.665
O 105.889 12.392 -1.690
O 61.627 25.740 -4.198
O 48.089 10.237 -10.098
O 43.907 17.131 -12.197
O 76.311 15.343 -19.410
O 46.171 3.601 -27.246
O 82.103 11.412 -23.115
O 77.943 26.598 -21.950
O 225.533 23.890 -14.630
O 107.469 29.263 -12.554
O 232.628 24.532 -10.327
O 43.721 26.845 -5.569
O 101.886 17.713 -6.861
O 231.131 23.529 -18.954
O 53.261 3.790 -8.120
O 223.346 24.031 -11.635
O 104.810 2.602 -18.997
O 83.999 19.732 -10.516
O 106.914 17.303 -12.868
O 77.838 20.998 -11.975
O 87.062 17.959 -27.452
O 68.806 21.120 -20.079
O 236.504 0.470 -11.507
O 226.841 16.436 -1.557
O 234.468 10.499 -19.210
O 45.507 15.582 -1.656
O 93.425 5.943 -21.627
O 70.167 10.919 -3.017
O 224.785 26.644 -11.177
O 87.029 0.415 -5.121
O 64.593 24.491 -2.255
O 47.264 8.317 -16.419
O 59.790 29.014 -5.996
O 94.090 0.749 -22.337
O 96.396 8.050 -29.444
O 111.088 15.447 -22.588
O 42.485 3.253 -4.772
O 93.665 19.501 -19.270
O 66.815 0.406 -29.969
O 50.490 28.353 -21.438
O 72.881 20.248 -0.026
O 74.764 25.944 -21.152
O 77.812 24.358 -17.622
O 240.853 16.841 -29.781
O 87.263 23.148 -10.250
O 81.415 9.056 -21.994
O 222.652 6.524 -21.341
O 49.909 13.093 -31.140
O 42.398 3.249 -12.921
O 94.562 3.946 -18.477
O 79.657 15.126 -10.473
O 43.806 13.851 -9.367
O 239.426 29.769 -0.435
O 113.634 6.190 -15.693
O 103.079 6.304 -19.377
O 226.673 10.037 -30.922
O 74.624 8.525 -0.460
O 226.267 29.933 -20.949
O 45.965 20.436 -0.686
O 232.684 12.690 -29.630
O 71.303 19.118 -22.724
O 77.581 10.849 -4.033
O 84.486 3.098 -22.120
O 113.217 27.376 -21.421
O 61.020 22.910 -14.467
O 89.103 12.238 -5.415
O 89.748 6.569 -29.989
O 78.604 6.488 -23.611
O 56.201 18.831 -10.915
O 78.342 10.319 -22.639
O 100.596 21.322 -10.348
O 100.088 14.302 -13.891
O 84.764 23.454 -28.342
O 64.787 18.654 -18.176
O 69.889 18.551 -20.269
O 60.377 13.215 -26.416
O 104.453 9.786 -8.888
O 58.480 16.265 -8.106
O 75.760 23.866 -5.429
O 107.885 21.021 -12.449
O 91.100 22.903 -18.326
O 224.013 9.608 -30.268
O 234.648 18.461 -15.135
O 64.183 16.158 -1.249
O 104.957 31.029 -22.608
O 45.905 5.880 -25.798
O 99.264 0.143 -1.179
O 223.315 11.898 -0.962
O 78.514 28.860 -31.298
O 99.395 4.797 -13.059
O 84.967 19.660 -26.767
O 93.090 8.979 -3.056
O 57.085 28.397 -5.546
O 75.731 12.347 -6.363
O 81.058 5.610 -18.520
O 78.086 1.524 -17.626
O 106.273 11.006 -25.521
O 72.462 26.637 -25.983
O 52.066 27.353 -0.315
O 44.686 23.689 -25.598
O 47.715 13.863 -13.431
O 47.844 13.143 -16.102
O 92.777 8.134 -18.573
O 90.240 0.150 -4.759
O 87.636 10.862 -27.395
O 228.145 28.344 -30.758
O 230.125 1.179 -10.010
O 41.285 29.590 -16.466
O 111.728 17.906 -19.096
O 75.345 14.977 -6.146
O 86.183 5.676 -11.650
O 223.598 15.780 -30.360
O 112.018 16.648 -12.137
O 109.426 7.588 -27.808
O 65.124 22.300 -13.527
O 231.563 6.133 -12.970
O 227.747 3.274 -9.372
O 112.220 27.358 -26.425
O 73.493 27.639 -8.059
O 66.394 3.630 -13.771
O 230.210 7.618 -6.583
O 58.687 10.287 -11.015
O 232.556 30.612 -0.295
O 84.641 14.223 -14.632
O 235.434 2.157 -21.689
O 76.964 4.633 -9.117
O 53.041 14.099 -5.550
O 52.566 18.611 -21.874
O 48.787 19.835 -0.084
O 227.834 18.316 -8.169
O 70.346 2.837 -27.808
O 66.008 20.739 -0.420
O 102.711 7.076 -11.861
O 78.748 14.728 -2.986
O 72.231 13.836 -8.729
O 236.989 23.907 -15.651
O 101.687 6.488 -2.072
O 79.635 14.364 -7.224
O 229.832 19.078 -31.308
O 94.662 9.852 -12.635
O 71.999 25.619 -2.084
O 238.939 7.909 -5.672
O 235.474 0.050 -7.800
O 93.145 28.857 -19.029
O 90.447 2.434 -0.976
O 85.699 5.905 -9.003
O 93.984 9.130 -24.964
O 97.888 10.833 -23.845
O 233.228 4.829 -28.407
O 108.104 9.517 -4.822
O 50.872 16.875 -23.308
O 64.576 30.109 -2.835
O 112.027 30.691 -1.797
O 47.266 17.304 -26.139
O 229.749 15.497 -31.063
O 109.574 10.377 -20.128
O 237.326 28.389 -4.973
O 241.046 15.828 -1.164
O 65.474 13.968 -17.933
O 83.140 9.123 -27.868
O 102.539 15.167 -12.919
O 93.903 1.534 -17.394
O 221.943 5.269 -28.358
O 93.953 27.236 -24.788
O 49.981 9.150 -26.700
O 99.087 16.318 -24.430
O 110.886 29.051 -9.723
O 231.410 15.978 -16.247
O 97.053 28.159 -10.943
O 73.526 31.262 -12.446
O 101.216 6.517 -17.251
O 48.503 4.811 -7.445
O 103.944 25.860 -7.649
O 100.162 5.189 -27.720
O 219.180 21.500 -19.849
O 242.173 21.347 -22.070
O 53.661 3.719 -14.135
O 240.530 30.786 -15.993
O 60.039 20.637 -4.977
O 111.366 5.666 -14.110
O 239.584 30.874 -4.750
O 71.656 3.923 -23.262
O 86.906 4.755 -3.395
O 86.011 11.751 -29.515
O 237.423 8.898 -10.490
O 49.986 0.809 -26.099
O 73.264 24.141 -19.726
O 88.163 21.448 -18.787
O 51.200 30.907 -20.319
O 62.286 20.663 -23.151
O 222.558 9.294 -19.555
O 103.912 14.204 -2.289
O 86.138 31.362 -19.260
O 50.666 27.132 -5.961
O 75.932 6.706 -22.438
O 102.918 24.302 -26.175
O 104.701 17.529 -9.004
O 238.345 18.557 -1.336
O 235.383 17.230 -0.288
O 238.604 17.903 -17.747
O 81.458 5.102 -1.350
O 111.559 20.994 -22.807
O 95.473 22.259 -15.402
O 239.553 23.806 -8.954
O 82.633 17.833 -22.128
O 46.974 29.908 -20.152
O 113.677 14.576 -27.732
O 43.998 10.457 -28.598
O 94.562 12.894 -18.352
O 43.191 7.705 -12.533
O 227.422 29.574 -11.991
O 239.988 27.762 -27.416
O 44.455 16.844 -26.747
O 64.212 28.863 -23.742
O 76.397 30.482 -0.647
O 83.489 23.539 -1.925
O 238.346 1.724 -24.434
O 228.661 0.669 -25.451
O 232.368 3.338 -13.927
O 46.175 31.221 -4.137
O 48.691 26.381 -26.226
O 48.880 30.787 -13.243
O 106.395 28.777 -6.373
O 84.280 9.261 -9.944
O 239.171 4.900 -5.907
O 68.481 10.120 -17.834
O 99.958 19.142 -20.371
O 70.731 15.348 -6.587
O 89.680 24.779 -20.831
O 225.583 8.749 -21.405
O 43.964 0.820 -5.333
O 106.084 23.754 -24.429
O 53.972 12.640 -24.562
O 242.125 11.718 -12.134
O 226.234 9.895 -5.875
O 103.077 3.282 -16.686
O 78.676 28.962 -9.388
O 106.403 28.572 -18.684
O 75.537 9.058 -3.421
O 61.996 1.862 -22.055
O 96.506 1.693 -26.783
O 89.642 29.829 -10.605
O 58.720 17.257 -24.020
O 225.648 11.927 -16.987
O 69.606 10.053 -14.731
O 73.784 1.832 -10.548
O 103.839 3.250 -4.979
O 57.399 4.459 -17.266
O 108.427 0.229 -15.345
O 96.252 0.413 -5.149
O 43.573 16.850 -29.590
O 227.504 23.719 -18.636
O 57.621 7.046 -13.668
O 241.076 2.057 -16.658
O 74.576 25.266 -27.250
O 229.677 15.270 -23.161
O 83.830 30.334 -4.853
O 55.722 14.493 -18.962
O 93.959 31.124 -27.731
O 58.295 9.805 -14.844
O 228.683 0.697 -7.115
O 103.014 7.388 -30.156
O 95.319 16.544 -11.925
O 109.406 3.550 -14.088
O 86.284 19.670 -17.909
O 224.008 8.828 -26.155
O 227.222 10.259 -22.827
O 41.717 12.689 -0.760
O 94.216 8.592 -16.049
O 111.834 15.855 -9.410
O 99.485 25.878 -11.148
O 92.989 2.142 -26.366
O 67.323 0.801 -21.710
O 103.270 26.008 -19.276
O 89.652 4.070 -10.161
O 57.413 4.335 -0.919
O 103.105 15.941 -22.568
O 76.209 20.923 -21.703
O 85.701 6.784 -26.979
O 241.130 14.743 -7.672
O 75.984 21.850 -17.986
O 77.945 28.487 -14.649
O 73.269 17.577 -27.843
O 53.684 28.533 -18.758
O 114.079 11.306 -0.496
O 71.841 2.107 -8.720
O 79.622 0.135 -8.689
O 47.117 10.191 -21.454
O 115.303 18.908 -1.285
O 49.032 20.960 -26.771
O 51.046 2.109 -8.982
O 41.297 7.445 -31.037
O 90.365 30.191 -17.403
O 78.910 7.889 -2.511
O 236.169 10.890 -26.341
O 78.736 23.445 -5.865
O 87.340 3.528 -8.534
O 76.057 14.662 -27.254
O 52.599 12.941 -18.360
O 83.177 20.709 -15.283
O 82.369 14.383 -25.739
O 55.745 17.480 -1.141
O 232.886 0.542 -15.441
O 64.135 31.381 -12.118
O 85.936 8.504 -5.706
O 236.915 23.086 -30.577
O 64.663 17.175 -6.815
O 113.243 9.843 -18.056
O 231.086 17.149 -29.182
O 107.640 6.336 -7.729
O 96.746 5.375 -28.348
O 41.098 13.233 -8.983
O 44.298 28.549 -23.037
O 56.164 30.564 -9.483
O 227.088 5.725 -1.123
O 106.867 9.573 -23.039
O 99.625 27.070 -19.241
O 90.436 9.155 -16.291
O 40.671 4.281 -7.490
O 50.691 26.500 -8.905
O 47.373 24.654 -23.195
O 241.649 18.919 -31.326
O 44.586 9.261 -5.888
O 50.001 5.614 -3.601
O 82.666 26.681 -14.037
O 104.277 11.032 -6.153
O 100.931 3.601 -20.440
O 67.671 29.668 -22.171
O 223.629 0.693 -19.495
O 70.935 14.736 -22.838
O 99.683 8.913 -28.113
O 75.272 18.168 -8.391
O 77.748 15.367 -12.462
O 42.595 10.055 -21.968
O 109.443 4.842 -0.509
O 106.561 17.613 -2.730
O 100.153 23.264 -26.142
O 82.444 15.145 -22.892
O 52.102 27.055 -15.341
O 56.878 17.576 -20.364
O 228.816 30.368 -4.756
O 47.172 27.652 -2.205
O 42.346 19.398 -4.786
O 89.949 26.147 -24.228
O 67.216 20.949 -12.243
O 237.974 17.232 -23.082
O 102.064 7.498 -14.644
O 73.798 6.476 -12.802
O 90.924 23.770 -10.935
O 228.436 5.141 -20.560
O 228.779 14.800 -2.347
O 68.886 22.964 -11.315
O 86.137 6.514 -19.865
O 96.033 25.838 -22.238
O 235.881 10.575 -23.521
O 44.841 20.711 -24.981
O 70.432 2.602 -15.145
O 226.354 17.429 -5.272
O 107.556 9.919 -0.493
O 237.597 1.050 -4.101
O 219.980 22.650 -11.668
O 229.999 23.006 -31.346
O 94.086 29.195 -16.452
O 225.052 3.812 -2.091
O 42.352 24.152 -14.727
O 110.671 10.416 -14.032
O 78.647 2.427 -21.882
O 47.066 22.384 -18.491
O 49.720 13.839 -2.444
O 51.561 5.874 -12.027
O 96.435 24.058 -18.851
O 239.313 14.345 -11.551
O 230.299 11.783 -8.674
O 112.640 26.445 -30.876
O 222.495 15.411 -16.094
O 234.431 5.878 -20.481
O 65.487 7.517 -31.230
O 74.884 28.290 -28.221
O 238.764 10.039 -22.904
O 238.992 18.858 -20.289
O 54.684 13.787 -28.883
O 53.256 31.354 -12.966
O 47.021 25.275 -10.762
O 109.388 0.961 -21.509
O 108.162 23.737 -2.538
O 107.241 20.030 -30.151
O 78.860 5.075 -26.832
O 43.028 17.127 -23.259
O 89.653 28.715 -25.596
O 56.384 24.254 -0.621
O 226.803 5.931 -29.381
O 107.360 5.550 -13.249
O 61.987 12.014 -14.263
O 239.738 5.300 -22.488
O 49.001 23.605 -30.465
O 56.498 27.646 -9.934
O 107.006 26.360 -27.624
O 57.209 14.044 -30.468
O 111.714 23.219 -29.129
O 240.895 29.577 -29.502
O 226.308 2.096 -28.187
O 42.516 31.327 -14.791
O 47.804 10.158 -13.285
O 108.572 29.143 -21.380
O 101.184 8.061 -8.409
O 93.974 28.464 -8.510
O 229.324 25.895 -22.542
O 54.173 25.896 -28.174
O 238.594 12.273 -4.962
O 240.227 1.870 -8.220
O 80.594 25.202 -16.944
O 97.736 18.224 -21.989
O 231.168 12.281 -21.095
O 96.797 12.888 -29.818
O 67.804 14.419 -7.149
O 58.007 15.773 -18.603
O 238.374 19.020 -10.063
O 237.560 12.788 -13.056
O 58.612 25.780 -29.223
O 82.670 6.665 -8.681
O 87.463 11.954 -0.783
O 81.406 29.335 -28.166
O 110.223 13.977 -8.097
O 230.567 17.524 -3.420
O 103.513 14.365 -30.328
O 84.848 9.336 -29.940
O 67.471 26.136 -17.610
O 233.375 10.258 -1.725
O 55.782 8.532 -6.982
O 233.170 11.415 -25.563
O 51.171 21.392 -10.816
O 58.673 10.838 -19.626
O 79.191 1.242 -12.267
O 53.193 27.193 -25.950
O 41.389 21.814 -27.167
O 241.669 4.645 -10.228
O 96.413 6.071 -2.932
O 232.827 4.317 -9.423
O 224.317 17.417 -16.415
O 76.317 26.692 -11.005
O 99.000 20.277 -0.110
O 232.242 25.507 -14.053
O 241.044 10.120 -19.373
O 100.273 22.979 -1.985
O 236.303 15.973 -27.795
O 87.146 23.674 -25.727
O 41.345 15.514 -13.662
O 50.997 16.547 -31.309
O 46.525 11.491 -18.602
O 236.292 26.059 -24.517
O 233.226 20.111 -29.257
O 76.143 12.872 -22.585
O 111.642 5.799 -1.937
O 64.874 12.673 -10.215
O 45.016 26.561 -25.526
O 240.024 28.929 -20.509
O 49.937 30.349 -30.960
O 227.269 14.656 -28.445
O 56.117 15.897 -22.337
O 88.914 1.970 -28.374
O 236.364 3.450 -25.663
O 79.849 5.832 -14.926
O 46.405 3.142 -14.918
O 232.897 4.863 -6.509
O 93.412 2.962 -4.872
O 237.356 25.727 -0.355
O 229.602 0.665 -18.383
O 45.702 28.229 -12.269
O 43.865 3.562 -23.643
O 227.770 18.441 -17.146
O 102.400 25.287 -11.382
O 49.087 5.552 -14.869
O 109.716 17.054 -6.882
O 228.344 18.811 -2.232
O 48.877 18.738 -6.447
O 97.731 8.826 -11.150
O 99.889 30.148 -7.065
O 48.125 16.368 -1.702
O 45.286 14.738 -11.781
O 235.447 7.619 -30.713
O 108.760 19.323 -9.345
O 69.488 13.709 -4.156
O 51.498 17.270 -25.966
O 111.343 24.367 -1.840
O 45.084 19.646 -14.894
O 55.189 24.205 -21.652
O 223.669 24.848 -4.065
O 53.035 5.543 -4.979
O 88.670 15.780 -28.932
O 67.969 4.189 -20.868
O 81.162 30.453 -25.177
O 87.200 15.550 -18.406
O 111.435 8.251 -24.895
O 89.063 9.675 -12.427
O 81.605 19.747 -18.630
O 42.113 4.857 -22.026
O 75.534 18.302 -2.013
O 111.646 21.190 -12.216
O 107.907 14.354 -28.835
O 44.597 5.718 -30.537
O 74.472 12.195 -3.200
O 44.668 18.984 -19.804
O 100.234 17.734 -28.639
O 71.909 20.714 -25.477
O 100.229 31.275 -23.630
O 64.657 22.348 -24.516
O 224.465 0.194 -24.302
O 68.422 18.948 -4.782
O 84.727 18.573 -7.967
O 224.049 5.550 -19.200
O 47.144 24.917 -13.375
O 240.775 7.472 -17.006
O 88.927 16.573 -2.267
O 88.653 14.515 -0.265
O 64.889 24.466 -5.282
O 76.034 17.237 -28.875
O 101.168 16.001 -8.793
O 45.668 20.088 -4.450
O 103.059 11.070 -13.437
O 99.240 26.352 -13.898
O 47.004 4.972 -29.475
O 239.200 26.572 -24.901
O 60.695 30.181 -14.869
O 75.903 11.830 -19.824
O 95.945 4.948 -15.748
O 93.900 7.359 -10.069
O 105.865 24.620 -12.389
O 228.842 20.326 -27.797
O 95.712 13.528 -16.050
O 240.220 13.936 -17.035
O 43.454 4.230 -15.576
O 240.380 15.493 -23.039
O 68.866 16.246 -11.184
O 237.412 22.910 -3.098
O 75.315 21.820 -3.554
O 110.525 2.358 -18.426
O 96.914 13.948 -27.280
O 64.793 13.986 -24.317
O 237.068 22.667 -9.057
O 49.452 12.098 -21.386
O 44.462 28.725 -1.844
O 85.573 31.354 -7.783
O 41.867 23.237 -31.170
O 66.953 20.420 -21.976
O 63.006 7.414 -19.129
O 63.392 3.601 -20.429
O 104.997 22.611 -7.761
O 96.657 21.415 -21.598
O 74.072 24.950 -7.412
O 53.828 30.945 -20.167
O 64.590 8.152 -12.129
O 75.601 3.869 -25.845
O 46.339 14.343 -20.502
O 100.568 11.984 -15.496
O 94.839 25.840 -9.183
O 114.187 8.772 -7.089
O 48.854 9.581 -18.145
O 79.400 3.140 -10.085
O 98.851 24.930 -6.845
O 91.894 28.081 -2.649
O 80.897 10.431 -6.839
O 96.599 21.461 -1.761
O 40.629 4.752 -2.844
O 113.154 23.727 -31.348
O 65.559 29.300 -30.838
O 223.395 20.724 -23.021
O 79.859 13.262 -22.778
O 89.713 23.790 -27.618
O 51.797 9.878 -12.031
O 98.974 4.856 -9.647
O 226.712 18.288 -22.664
O 62.540 19.642 -30.247
O 240.545 8.915 -29.352
O 43.842 5.992 -20.208
O 57.984 5.940 -27.705
O 112.336 3.247 -28.437
O 71.712 8.278 -29.757
O 236.018 1.607 -16.407
O 67.281 11.936 -27.514
O 228.978 4.172 -16.301
O 62.718 26.471 -22.731
O 62.194 31.228 -8.148
O 50.242 31.010 -5.356
O 100.084 20.932 -14.643
O 68.156 28.714 -17.204
O 95.290 15.760 -2.256
O 79.746 25.653 -25.011
O 230.205 11.552 -26.881
O 110.487 29.205 -3.651
O 234.095 0.823 -5.512
O 227.543 29.367 -7.802
O 106.123 24.614 -17.669
O 96.793 8.399 -23.921
O 109.352 21.851 -24.727
O 97.071 6.963 -7.405
O 221.863 13.026 -24.062
O 104.069 28.779 -20.037
O 65.900 10.146 -16.485
O 59.868 0.747 -20.535
O 61.959 2.558 -29.893
O 104.199 17.657 -29.471
O 80.387 25.231 -7.611
O 83.594 29.355 -7.695
O 95.332 5.473 -24.599
O 41.957 7.676 -23.163
O 235.934 2.466 -19.003
O 55.504 19.779 -17.746
O 86.894 4.621 -21.628
O 74.125 15.857 -1.159
O 53.460 29.507 -0.992
O 78.241 8.105 -20.640
O 234.974 26.283 -16.438
O 47.398 15.646 -17.254
O 233.141 22.083 -5.409
O 56.639 26.484 -7.362
O 49.876 3.425 -17.877
O 42.244 28.414 -3.529
O 238.489 9.384 -20.008
O 82.839 29.583 -10.534
O 109.095 15.152 -14.306
O 88.244 6.874 -4.566
O 61.932 5.098 -10.650
O 223.998 11.437 -4.636
O 117.780 17.426 -2.568
O 229.737 16.460 -8.326
O 235.294 7.971 -18.339
O 59.610 0.159 -24.098
O 110.341 1.868 -1.040
O 241.068 28.146 -23.153
O 107.972 23.645 -14.036
O 48.350 2.440 -8.958
O 62.446 30.953 -1.370
O 47.935 6.324 -9.805
O 73.359 11.232 -5.470
O 240.799 11.819 -21.832
O 81.112 2.409 -7.850
O 101.254 29.797 -1.608
O 237.616 25.907 -5.935
O 62.788 4.779 -28.349
O 230.948 3.201 -28.153
O 94.698 20.294 -4.896
O 88.895 4.623 -24.001
O 91.177 14.658 -20.964
O 47.683 29.940 -29.302
O 78.458 23.595 -8.719
O 241.602 15.944 -19.936
O 75.870 9.582 -23.973
O 98.452 26.606 -23.588
O 75.559 23.802 -24.985
O 65.001 6.552 -25.378
O 80.153 25.003 -27.858
O 43.176 19.570 -28.773
O 50.300 17.733 -4.165
O 104.907 28.580 -12.724
O 231.328 0.783 -13.231
O 234.708 26.391 -4.515
O 48.838 10.952 -7.638
O 233.870 23.766 -30.719
O 220.688 20.334 -8.017
O 226.573 21.615 -1.667
O 112.452 18.116 -25.702
O 75.317 31.011 -7.425
O 110.110 12.379 -17.802
O 103.616 28.048 -14.971
O 95.090 10.317 -7.309
O 237.253 28.624 -15.198
O 55.127 12.080 -17.416
O 91.858 22.084 -27.349
O 53.224 29.768 -27.019
O 87.517 17.633 -11.801
O 110.274 14.045 -25.173
O 98.442 3.095 -6.075
O 82.775 1.015 -23.422
O 79.442 15.778 -24.431
O 103.011 15.050 -25.018
O 227.521 4.896 -6.933
O 57.964 2.956 -27.414
O 93.970 6.794 -1.355
O 57.629 13.574 -7.156
O 60.668 15.892 -27.910
O 231.176 21.137 -9.373
O 219.647 20.127 -10.669
O 53.299 29.185 -7.411
O 67.952 7.647 -14.639
O 90.186 20.734 -10.512
O 86.974 13.257 -6.903
O 108.432 12.702 -0.261
O 56.190 8.698 -23.178
O 72.720 5.852 -4.914
O 236.510 12.737 -15.758
O 102.320 15.544 -16.259
O 51.754 13.182 -10.208
O 101.702 19.174 -30.495
O 71.904 10.981 -29.695
O 46.482 7.449 -5.306
O 44.562 18.148 -0.731
O 231.840 22.803 -15.111
O 52.421 17.817 -2.533
O 63.613 26.500 -18.526
O 100.134 27.215 -8.883
O 45.344 26.766 -14.643
O 230.816 2.812 -25.619
O 74.385 26.831 -2.096
O 100.822 15.733 -31.372
O 73.732 20.141 -4.792
O 107.918 17.702 -20.266
O 69.503 8.931 -10.090
O 225.008 26.694 -15.759
O 236.786 7.125 -12.364
O 223.398 3.900 -30.406
O 97.173 1.118 -19.065
O 240.787 4.095 -20.168
O 61.215 6.528 -5.602
O 235.980 28.664 -30.053
O 83.114 11.806 -9.506
O 49.557 24.283 -10.422
O 73.216 19.652 -12.051
O 58.251 6.833 -0.534
O 232.738 6.896 -17.501
O 94.556 3.646 -22.674
O 85.138 2.535 -19.195
O 240.809 15.129 -4.803
O 239.527 13.200 -9.139
O 101.516 24.023 -20.035
O 63.080 8.742 -23.621
O 68.165 23.855 -25.901
O 67.735 24.474 -4.900
O 80.521 7.543 -0.106
O 226.068 24.468 -7.500
O 108.475 26.793 -19.131
O 96.549 25.550 -4.259
O 64.306 27.127 -5.926
O 57.706 30.792 -18.548
O 100.000 27.234 -0.808
O 112.770 18.449 -22.975
O 108.661 27.915 -31.431
O 236.087 7.016 -2.407
O 224.223 24.869 -18.043
O 112.405 28.835 -19.346
O 110.405 29.508 -26.363
O 108.681 16.033 -3.088
O 51.065 16.333 -15.965
O 88.963 29.767 -30.621
O 237.987 14.039 -1.797
O 42.288 29.917 -10.966
O 78.449 31.359 -15.295
O 114.648 16.050 -10.282
O 93.065 9.848 -5.644
O 69.371 25.097 -20.847
O 230.096 12.590 -0.677
O 45.040 13.919 -26.779
O 84.938 22.662 -7.393
O 72.342 27.843 -17.502
O 58.171 23.282 -27.751
O 80.983 30.681 -14.108
O 50.676 27.926 -24.119
O 80.934 8.095 -4.747
O 73.578 19.955 -21.521
O 105.006 9.404 -21.257
O 224.047 24.941 -31.250
O 67.087 30.404 -12.478
O 89.918 30.139 -22.456
O 235.284 15.870 -12.481
O 235.683 27.851 -20.523
O 241.968 6.878 -27.422
O 71.724 10.514 -24.663
O 93.934 21.342 -2.295
O 69.350 22.209 -5.950
O 72.350 4.815 -8.544
O 60.541 26.488 -6.438
O 68.190 18.776 -10.707
O 231.882 30.725 -4.195
O 56.519 13.990 -26.829
O 47.732 23.781 -25.918
O 71.046 13.704 -15.515
O 58.714 4.212 -14.022
O 62.638 7.613 -3.535
O 91.482 10.346 -28.394
O 75.960 18.956 -18.604
O 87.218 30.358 -12.212
O 232.723 23.050 -23.411
O 108.339 16.530 -9.388
O 105.786 23.876 -27.074
O 93.097 23.596 -3.447
O 63.021 28.939 -20.198
O 54.295 23.937 -6.559
O 224.492 20.709 -12.706
O 54.341 15.024 -12.652
O 63.657 9.427 -0.104
O 227.197 26.677 -23.954
O 87.408 0.791 -26.409
O 114.277 19.454 -29.248
O 40.607 22.260 -7.627
O 105.100 17.886 -26.024
O 241.688 27.576 -31.325
O 71.681 22.292 -14.132
O 85.899 0.688 -29.139
O 62.627 20.214 -18.382
O 90.558 0.767 -11.386
O 231.134 19.962 -13.774
O 73.881 12.869 -18.448
O 48.221 17.762 -23.407
O 62.723 28.306 -7.952
O 81.219 28.436 -1.955
O 66.942 10.681 -19.950
O 55.173 26.769 -12.439
O 228.460 1.373 -16.009
O 226.475 22.615 -25.703
O 229.154 17.952 -19.977
O 67.456 25.012 -15.039
O 98.975 24.390 -29.317
O 237.853 14.545 -21.281
O 77.695 16.496 -6.862
O 108.070 6.242 -20.877
O 234.021 7.317 -7.439
O 103.620 21.008 -10.921
O 231.357 26.792 -20.547
O 222.141 16.227 -1.391
O 113.681 16.154 -18.113
O 89.277 28.981 -2.615
O 92.941 3.604 -1.126
O 98.171 14.938 -10.259
O 229.862 12.088 -12.093
O 240.537 8.256 -23.832
O 103.397 2.814 -21.371
O 62.124 29.601 -27.350
O 105.691 25.325 -0.650
O 65.502 18.969 -14.412
O 75.578 0.316 -26.872
O 77.120 17.636 -20.912
O 82.489 14.061 -19.326
O 63.317 22.485 -11.542
O 43.084 16.475 -6.053
O 57.528 20.991 -12.019
O 97.505 3.064 -17.329
O 224.939 17.433 -21.043
O 45.719 12.640 -24.294
O 93.288 5.320 -12.509
O 225.755 27.178 -6.441
O 52.214 20.055 -1.251
O 240.655 15.672 -14.924
O 231.883 23.874 -3.685
O 113.020 29.762 -13.407
O 71.945 17.228 -14.502
O 87.729 11.526 -14.008
O 88.933 7.383 -22.796
O 46.417 3.261 -22.455
O 86.573 25.971 -22.866
O 113.840 17.401 -31.055
O 75.837 28.131 -6.709
O 73.951 0.838 -19.867
O 235.820 18.047 -18.840
O 220.999 6.291 -19.181
O 96.715 4.270 -7.767
O 69.369 22.758 -2.079
O 96.194 26.407 -6.806
O 56.803 3.331 -22.577
O 70.517 29.485 -28.348
O 90.071 19.959 -27.355
O 57.170 31.323 -31.395
O 84.121 11.589 -15.059
O 56.438 28.363 -19.171
O 230.463 5.444 -18.423
O 89.537 7.442 -8.494
O 93.762 22.390 -25.342
O 235.373 12.613 -28.201
O 228.158 2.725 -12.907
O 229.434 8.730 -17.304
O 89.417 11.239 -2.636
O 60.643 13.745 -22.799
O 50.580 20.499 -21.993
O 80.539 9.418 -12.241
O 114.360 15.025 -12.989
O 118.178 14.648 -2.215
O 106.748 27.039 -16.131
O 44.943 21.523 -20.714
O 233.872 7.290 -4.169
O 235.035 2.417 -1.865
O 230.966 18.687 -26.886
O 236.759 19.846 -16.294
O 240.964 6.207 -0.820
O 59.471 21.221 -19.302
O 42.778 30.862 -23.496
O 236.549 15.027 -25.087
O 230.150 25.693 -31.030
O 50.772 23.851 -28.296
O 109.377 8.478 -22.599
O 86.940 5.451 -15.972
O 58.184 31.280 -15.787
O 98.175 23.005 -14.650
O 98.208 23.338 -0.345
O 230.172 25.865 -4.972
O 99.392 11.873 -2.086
O 108.853 15.684 -0.194
O 50.982 18.976 -14.995
O 45.529 2.089 -17.678
O 83.353 25.816 -28.546
O 102.906 30.357 -24.146
O 96.372 30.416 -21.208
O 232.856 2.869 -16.665
O 64.148 5.965 -21.257
O 100.663 2.340 -10.130
O 84.807 10.295 -4.152
O 102.691 20.601 -16.647
O 89.942 18.298 -29.514
O 46.121 19.804 -7.499
O 93.504 23.680 -6.176
O 49.366 11.153 -2.926
O 96.033 22.409 -7.039
O 41.754 9.434 -19.432
O 235.868 12.687 -21.753
O 83.918 27.329 -19.318
O 234.523 26.070 -28.807
O 54.040 7.126 -30.539
O 113.840 20.643 -25.433
O 71.552 14.245 -27.747
O 108.179 13.915 -4.788
O 227.915 10.690 -13.285
O 57.068 14.976 -3.522
O 58.127 24.548 -19.769
O 85.105 17.538 -5.188
O 92.040 21.733 -7.192
O 51.859 24.508 -11.915
O 92.595 5.986 -16.131
O 225.824 25.883 -19.954
O 47.514 12.184 -4.906
O 75.362 24.419 -9.671
O 233.990 15.967 -29.587
O 101.662 19.169 -1.764
O 225.151 28.410 -13.585
O 59.229 3.859 -9.213
O 93.919 12.198 -14.037
O 93.641 7.213 -29.976
O 46.206 23.030 -9.347
O 59.643 23.236 -1.610
O 97.417 15.967 -4.216
O 81.488 19.902 -11.545
O 68.369 25.154 -23.541
O 67.073 12.008 -5.787
O 60.948 23.330 -6.170
O 86.931 26.252 -28.913
O 88.447 23.935 -23.156
O 88.846 19.406 -23.799
O 108.689 2.735 -16.507
O 86.407 19.345 -29.952
O 71.485 15.418 -18.053
O 71.878 0.371 -15.649
O 242.055 18.716 -26.434
O 112.644 3.525 -31.383
O 60.008 26.684 -1.526
O 58.037 30.322 -28.557
O 96.301 1.026 -13.600
O 84.202 8.542 -12.511
O 47.330 10.352 -24.377
O 238.547 27.519 -30.066
O 236.868 6.253 -22.726
O 81.937 25.413 -19.302
O 56.996 26.844 -21.454
O 78.842 0.064 -19.692
O 43.073 9.306 -26.089
O 221.089 21.955 -17.413
O 237.635 1.644 -6.805
O 95.238 28.660 -26.809
O 67.999 8.247 -25.453
O 95.886 27.053 -29.867
O 235.962 30.094 -21.859
O 92.223 18.994 -4.788
O 231.245 9.002 -12.969
O 233.610 29.970 -27.600
O 237.997 20.974 -4.973
O 51.741 30.548 -24.919
O 238.899 8.439 -13.581
O 242.335 10.201 -0.219
O 71.621 27.112 -20.361
O 112.395 8.043 -27.683
O 73.681 1.460 -0.940
O 103.225 2.279 -30.530
O 81.446 10.320 -0.502
O 46.923 28.299 -24.421
O 108.343 27.801 -25.538
O 231.347 2.576 -18.949
O 78.614 16.262 -17.441
O 74.323 12.154 -8.640
O 99.676 10.261 -7.744
O 65.840 5.977 -15.399
O 78.635 18.475 -1.624
O 46.745 7.541 -13.627
O 94.027 23.844 -22.958
O 96.608 15.053 -24.095
O 77.671 5.079 -20.545
O 101.845 25.258 -30.189
O 85.304 16.008 -12.486
O 100.070 13.654 -27.965
O 226.164 13.608 -10.416
O 47.577 17.396 -19.279
O 241.984 1.979 -2.487
O 241.547 18.416 -21.640
O 94.611 1.624 -10.079
O 58.202 16.182 -29.008
O 43.389 16.547 -8.681
O 103.340 2.008 -27.601
O 43.118 5.313 -8.492
O 102.690 4.507 -28.806
O 88.384 18.295 -6.409
O 223.114 25.059 -14.192
O 115.125 10.294 -2.910
O 94.595 30.132 -6.516
O 113.014 13.307 -14.565
O 58.172 12.262 -4.808
O 83.739 13.221 -7.300
O 57.456 2.415 -15.518
O 234.192 13.779 -23.620
O 230.789 0.637 -1.854
O 239.637 26.288 -1.712
O 65.308 2.859 -9.038
O 234.783 15.632 -18.019
O 235.895 16.325 -21.106
O 52.301 19.959 -26.997
O 62.360 12.671 -24.606
O 107.357 28.888 -3.390
O 224.177 6.844 -15.925
O 42.663 26.778 -13.716
O 53.166 21.834 -8.694
O 55.300 19.985 -8.632
O 231.460 20.483 -6.568
O 55.749 10.587 -15.279
O 94.105 3.526 -7.335
O 102.213 22.208 -8.346
O 84.753 31.292 -11.994
O 227.859 21.338 -30.615
O 105.723 21.880 -20.968
O 226.937 18.737 -29.281
O 90.871 14.542 -5.852
O 51.904 11.156 -0.333
O 102.832 20.524 -6.254
O 49.400 6.459 -24.328
O 224.026 25.260 -25.398
O 97.597 18.398 -7.838
O 73.001 22.817 -24.270
O 74.587 2.962 -13.349
O 67.401 30.192 -15.003
O 64.746 12.991 -20.282
O 85.156 25.413 -25.068
O 50.133 1.317 -2.809
O 229.140 12.706 -24.389
O 41.664 17.342 -10.558
O 237.155 7.060 -20.152
O 41.879 22.409 -12.758
O 81.671 6.476 -24.719
O 91.609 10.722 -8.889
O 62.280 22.683 -27.642
O 110.084 7.469 -15.901
O 222.314 18.538 -6.779
O 78.404 11.165 -0.328
O 46.421 21.896 -23.031
O 47.445 14.406 -22.880
O 62.838 20.668 -3.943
O 225.880 14.784 -20.115
O 85.573 7.677 -2.412
O 94.548 9.357 -20.551
O 93.635 19.232 -11.604
O 93.887 14.057 -9.366
O 99.545 25.358 -3.040
O 59.420 13.863 -19.945
O 228.109 25.865 -1.205
O 50.919 1.735 -31.023
O 92.636 6.205 -7.917
O 105.527 8.281 -28.379
O 81.317 23.307 -25.397
O 72.795 9.745 -7.788
O 60.580 25.337 -9.166
O 223.891 29.805 -4.932
O 60.477 0.629 -12.846
O 57.907 0.776 -3.147
O 230.783 3.651 -11.214
O 83.215 0.481 -28.915
O 237.821 23.365 -25.882
O 90.845 20.944 -3.591
O 89.129 22.669 -15.753
O 68.461 16.978 -29.529
O 54.361 21.523 -0.565
O 41.348 24.507 -8.802
O 91.152 27.933 -8.708
O 75.466 2.928 -30.575
O 92.448 20.738 -21.381
O 48.101 27.377 -4.891
O 76.810 11.239 -9.773
O 57.617 3.787 -6.966
O 106.087 25.939 -9.222
O 77.344 13.258 -17.558
O 81.822 2.516 -30.689
O 106.059 18.248 -15.613
O 44.423 11.420 -20.454
O 45.394 8.296 -0.457
O 221.739 13.253 -5.569
O 71.602 15.618 -10.847
O 56.039 9.322 -11.387
O 227.088 12.894 -30.375
O 106.932 3.235 -3.643
O 98.212 23.938 -24.384
O 87.187 14.730 -3.289
O 233.797 13.653 -16.232
O 110.819 30.799 -29.212
O 105.453 16.238 -6.420
O 223.043 14.804 -12.905
O 53.759 9.947 -8.245
O 83.582 3.316 -25.029
O 240.496 18.063 -11.667
O 107.665 13.926 -9.490
O 84.211 28.500 -28.826
O 235.584 24.718 -2.314
O 110.487 17.963 -21.488
O 62.923 21.516 -15.878
O 48.163 14.757 -6.107
O 228.127 25.585 -13.784
O 73.740 15.676 -13.597
O 101.663 2.138 -12.639
O 44.117 23.274 -5.416
O 76.418 15.790 -9.757
O 227.279 0.902 -10.944
O 52.438 23.049 -18.416
O 68.069 7.732 -22.756
O 105.490 15.730 -0.362
O 87.318 26.239 -14.635
O 51.785 15.154 -20.279
O 238.690 9.102 -16.415
O 61.565 27.742 -14.231
O 53.332 21.824 -25.362
O 232.520 19.181 -0.136
O 240.602 9.839 -9.163
O 85.452 21.581 -3.789
O 232.722 6.825 -30.389
O 90.831 5.342 -2.483
O 86.741 24.788 -0.082
O 83.031 29.149 -21.238
O 53.967 16.779 -15.032
O 91.005 7.463 -0.712
O 103.729 9.664 -15.733
O 229.107 5.753 -10.513
O 44.661 28.477 -27.770
O 82.783 6.914 -15.008
O 229.057 6.973 -2.448
O 72.524 29.309 -10.759
O 79.011 26.841 -3.976
O 83.822 4.373 -30.568
O 99.342 12.740 -25.392
O 85.689 11.111 -25.410
O 239.091 7.585 -2.878
O 104.549 14.040 -16.836
O 229.506 26.675 -28.597
O 70.938 4.219 -3.412
O 56.244 6.304 -25.408
O 66.869 4.619 -24.527
O 109.023 27.156 -14.566
O 230.679 8.573 -9.384
O 105.286 3.955 -15.140
O 57.853 13.550 -22.192
O 236.772 29.392 -26.880
O 66.373 22.136 -9.718
O 81.038 25.976 -0.827
O 80.687 10.245 -9.678
O 61.737 26.462 -28.784
O 77.683 10.185 -17.737
O 40.923 28.951 -24.952
O 228.154 12.074 -20.843
O 96.328 3.704 -10.684
O 70.588 30.165 -17.825
O 80.551 8.980 -24.934
O 80.452 6.187 -21.227
O 61.605 24.943 -26.321
O 241.703 22.192 -3.986
O 224.771 27.565 -0.820
O 53.153 11.447 -29.151
O 56.789 7.624 -29.855
O 75.644 11.175 -0.859
O 46.934 15.285 -28.442
O 221.790 25.299 -18.931
O 54.179 16.145 -30.343
O 87.626 4.668 -26.478
O 74.982 28.114 -19.208
O 78.388 26.539 -1.403
O 69.651 12.558 -17.282
O 50.472 8.004 -10.395
O 230.545 14.536 -4.719
O 51.757 12.183 -13.747
O 82.002 19.270 -26.645
O 97.078 27.787 -17.336
O 102.043 28.351 -22.124
O 91.957 27.056 -28.755
O 57.519 12.995 -1.540
O 109.370 27.957 -7.629
O 79.883 22.776 -2.158
O 48.445 21.215 -9.883
O 90.327 18.028 -11.405
O 51.257 19.938 -17.821
O 101.326 7.081 -24.657
O 101.815 18.308 -10.202
O 67.094 2.600 -0.243
O 62.034 16.237 -14.137
O 65.025 30.865 -18.734
O 94.215 10.002 -9.759
O 69.781 12.556 -28.857
O 65.707 14.196 -26.972
O 86.572 12.902 -23.488
O 109.709 17.565 -27.922
O 65.567 12.302 -3.540
O 49.099 27.513 -29.119
O 59.822 14.893 -3.459
O 60.017 17.980 -6.461
O 235.181 30.998 -14.312
O 96.490 6.664 -10.042
O 85.345 5.607 -23.992
O 87.994 20.529 -4.578
O 85.412 24.016 -13.208
O 61.355 3.489 -13.536
O 104.077 28.753 -26.192
O 229.784 22.913 -27.511
O 64.340 16.301 -22.896
O 109.270 21.659 -7.209
O 104.059 3.250 -7.952
O 99.866 16.331 -2.854
O 59.632 6.587 -17.339
O 115.417 19.326 -22.406
O 57.471 21.149 -16.670
O 237.440 20.285 -7.868
O 68.074 7.211 -8.222
O 101.755 27.207 -17.302
O 60.883 9.194 -6.972
O 88.772 8.896 -28.723
O 103.907 27.392 -10.318
O 226.345 23.083 -12.240
O 67.769 0.403 -25.839
O 107.191 8.835 -8.800
O 58.301 9.493 -5.918
O 54.590 27.203 -16.540
O 105.451 14.723 -21.692
O 239.537 27.243 -7.288
O 40.851 2.414 -26.462
O 99.031 18.915 -10.236
O 83.988 16.187 -9.166
O 55.722 5.370 -8.053
O 45.055 5.310 -13.340
O 70.637 19.599 -13.769
O 233.337 15.231 -4.684
O 234.248 9.217 -14.597
O 113.416 19.097 -12.148
O 63.551 13.160 -1.927
O 102.760 18.919 -27.247
O 80.675 16.802 -13.508
O 237.027 10.899 -8.402
O 68.634 13.612 -0.063
O 112.643 20.366 -20.407
O 85.310 21.170 -13.329
O 80.444 8.051 -17.770
O 226.383 31.107 -4.068
O 96.942 29.020 -8.051
O 237.222 4.667 -7.805
O 86.882 16.909 -20.859
O 228.525 20.515 -12.066
O 93.033 12.835 -5.560
O 62.372 19.019 -14.522
O 104.040 4.736 -2.558
O 72.565 9.180 -2.156
O 42.504 24.339 -27.226
O 227.356 12.366 -8.468
O 91.265 16.203 -3.659
O 108.595 29.956 -17.736
O 97.874 0.567 -7.339
O 108.557 18.976 -16.850
O 228.657 21.517 -3.530
O 107.365 7.315 -15.518
O 44.455 20.935 -9.463
O 224.374 4.930 -26.721
O 90.219 0.958 -8.612
O 85.005 16.364 -23.284
O 84.484 3.035 -7.747
O 107.724 21.500 -16.187
O 235.012 19.535 -8.211
O 99.625 29.206 -13.788
O 230.608 22.851 -11.294
O 104.462 23.663 -14.630
O 105.193 15.044 -26.540
O 55.806 31.116 -27.248
O 68.670 18.752 -24.142
O 235.490 16.516 -2.811
O 64.591 3.048 -24.196
O 79.428 17.365 -8.922
O 112.426 9.338 -11.342
O 237.918 3.715 -3.813
O 85.459 12.515 -2.740
O 100.509 9.290 -22.868
O 223.426 30.753 -13.428
O 59.936 19.427 -12.179
O 86.545 8.309 -22.332
O 223.893 20.022 -16.988
O 230.968 17.681 -6.084
O 232.120 4.027 -21.427
O 43.190 30.630 -29.625
O 70.564 25.699 -5.032
O 115.012 22.279 -15.859
O 97.737 5.851 -25.795
O 55.779 1.766 -6.506
O 100.626 29.885 -9.774
O 82.454 15.951 -15.564
O 84.966 19.076 -2.457
O 66.124 10.218 -25.512
O 231.836 19.880 -24.346
O 95.660 14.424 -20.631
O 229.743 9.491 -2.387
O 110.000 13.979 -20.432
O 65.962 30.169 -27.607
O 81.284 21.783 -16.814
O 54.447 19.244 -4.177
O 50.772 23.072 -20.916
O 69.387 15.202 -13.956
O 107.790 7.148 -1.069
O 74.523 25.307 -15.928
O 68.416 16.454 -16.139
O 63.980 25.664 -25.112
O 47.653 8.810 -2.048
O 67.032 16.479 -25.472
O 42.119 2.675 -28.946
O 230.149 8.401 -22.959
O 104.601 13.330 -14.013
O 103.819 7.035 -22.019
O 235.992 9.438 -1.156
O 79.735 3.218 -28.807
O 64.906 31.248 -8.187
O 66.946 20.982 -7.239
O 95.868 20.145 -17.603
O 47.045 29.829 -26.748
O 59.504 20.481 -15.025
O 91.429 12.482 -22.805
O 77.783 1.196 -28.469
O 66.974 5.154 -1.479
O 231.045 21.754 -2.192
O 228.439 0.984 -29.603
O 63.239 6.344 -1.155
O 65.811 2.421 -28.250
O 237.517 16.326 -10.689
O 71.338 9.943 -18.382
O 48.571 3.796 -25.407
O 223.667 19.920 -20.328
O 42.268 24.541 -17.942
O 77.123 27.562 -17.126
O 224.663 16.791 -3.293
O 55.006 7.582 -4.702
O 226.641 16.644 -24.970
O 226.614 15.944 -17.661
O 43.665 9.950 -10.936
O 67.068 13.783 -13.655
O 100.849 25.620 -22.274
O 223.744 10.730 -21.508
O 81.668 16.713 -0.945
O 94.596 28.648 -22.305
O 68.114 22.442 -15.925
O 46.726 0.906 -26.043
O 53.828 7.751 -22.119
O 238.797 19.712 -14.374
O 75.253 30.038 -23.122
O 231.335 5.713 -3.037
O 74.335 26.137 -13.091
O 73.053 28.027 -14.838
O 77.095 20.539 -24.531
O 90.337 23.799 -3.650
O 83.698 0.350 -26.193
O 56.338 16.104 -25.077
O 49.548 20.803 -2.668
O 88.563 13.005 -9.337
O 51.436 5.160 -30.146
O 85.862 1.639 -0.697
O 82.625 1.910 -18.546
O 85.944 28.500 -5.774
O 226.361 16.480 -30.377
O 58.164 9.993 -3.136
O 84.135 12.960 -22.166
O 56.114 26.672 -3.728
O 68.041 5.472 -4.165
O 102.965 29.422 -4.550
O 230.107 5.016 -5.651
O 100.731 21.995 -30.467
O 110.489 7.399 -12.038
O 74.211 1.239 -17.001
O 83.327 0.643 -14.281
O 239.873 16.855 -27.059
O 86.701 3.398 -5.798
O 236.220 14.110 -3.809
O 99.099 22.700 -22.091
O 69.683 6.338 -12.902
O 87.764 3.479 -12.175
O 50.290 11.268 -15.951
O 229.523 8.513 -20.127
O 108.415 9.076 -13.168
O 108.279 0.569 -5.073
O 48.675 13.123 -19.068
O 63.484 20.724 -7.679
O 222.522 23.793 -1.786
O 99.927 19.671 -6.681
O 85.032 13.157 -18.018
O 63.767 5.566 -12.479
O 233.796 21.728 -9.837
O 98.243 7.679 -4.555
O 70.836 24.486 -25.159
O 224.921 20.326 -25.258
O 88.003 20.997 -8.486
O 80.386 13.089 -4.613
O 234.940 28.785 -1.178
O 238.425 0.632 -13.600
O 74.878 4.319 -10.991
O 91.622 8.066 -21.454
O 59.717 17.633 -3.785
O 224.346 18.041 -9.696
O 72.079 22.526 -29.879
O 229.212 0.515 -22.841
O 113.495 23.272 -13.412
O 80.285 21.913 -20.567
O 230.837 4.999 -31.346
O 43.816 12.863 -16.497
O 46.590 0.171 -8.903
O 106.878 26.206 -2.937
O 59.385 30.680 -8.378
O 233.212 13.799 -27.089
O 72.024 31.174 -4.286
O 105.527 15.730 -11.120
O 60.649 3.641 -19.182
O 88.925 3.869 -30.618
O 43.480 10.242 -0.091
O 45.669 26.743 -21.623
O 61.793 6.320 -14.983
O 106.590 2.494 -24.179
O 42.354 31.425 -20.480
O 237.145 11.044 -17.916
O 108.168 6.588 -10.884
O 107.877 26.468 -12.161
O 223.120 27.859 -25.937
O 240.014 2.497 -26.790
O 84.823 30.142 -15.278
O 89.128 20.065 -31.256
O 45.780 1.159 -30.549
O 93.286 14.055 -2.767
O 107.120 8.561 -19.771
O 242.363 30.684 -12.968
O 41.502 18.964 -13.849
O 241.331 0.884 -19.294
O 60.719 24.961 -31.003
O 91.735 29.751 -27.367
O 89.941 25.516 -29.745
O 239.233 10.806 -12.081
O 222.921 3.367 -18.012
O 240.280 4.611 -13.878
O 62.822 17.026 -29.204
O 238.301 18.414 -25.464
O 237.572 23.671 -22.601
O 82.751 17.259 -11.340
O 51.611 1.421 -15.376
O 84.158 13.543 -28.643
O 51.714 14.873 -13.689
O 44.205 16.921 -17.689
O 109.856 16.652 -16.317
O 226.430 20.304 -15.652
O 87.273 10.818 -21.144
O 241.218 24.686 -31.259
O 232.768 18.690 -17.133
O 77.612 8.336 -6.229
O 78.187 11.448 -6.912
O 45.387 18.104 -9.994
O 224.971 25.845 -22.542
O 108.883 25.188 -8.377
O 48.828 1.793 -14.773
O 232.449 29.453 -7.615
O 71.278 16.098 -30.743
O 240.694 25.357 -28.521
O 73.112 11.564 -22.550
O 77.046 21.376 -7.298
O 242.088 27.452 -11.394
O 241.633 24.933 -3.099
O 51.800 3.461 -2.798
O 107.089 18.417 -6.564
O 107.155 7.976 -26.240
O 101.564 27.158 -3.693
O 46.234 26.423 -8.362
O 51.153 28.865 -4.090
O 75.243 22.052 -11.233
O 99.907 18.157 -14.486
O 227.897 25.783 -26.471
O 232.206 15.897 -23.797
O 44.590 31.076 -18.831
O 96.215 25.895 -14.721
O 76.898 6.800 -30.837
O 85.631 11.151 -12.228
O 75.407 29.318 -25.639
O 72.082 4.878 -29.212
O 70.823 22.830 -16.772
O 75.899 30.309 -20.397
O 42.242 25.039 -1.666
O 111.817 15.381 -0.044
O 228.882 29.141 -16.212
O 72.493 0.093 -6.805
O 45.891 17.093 -21.845
O 100.333 24.295 -15.454
O 99.079 12.601 -17.933
O 69.972 30.071 -20.692
O 70.307 17.828 -17.352
O 76.790 31.165 -3.385
O 63.945 14.574 -29.285
O 80.405 21.647 -9.830
O 42.093 1.939 -0.375
O 74.345 14.712 -16.458
O 57.977 24.144 -23.129
O 54.464 17.901 -25.836
O 52.518 26.999 -12.660
O 84.808 24.028 -15.868
O 232.718 16.540 -26.301
O 105.509 27.052 -24.841
O 65.301 7.805 -7.939
O 68.296 15.506 -22.887
O 63.050 5.327 -17.220
O 233.768 13.164 -19.966
O 63.920 10.333 -8.841
O 231.724 8.861 -15.671
O 235.048 27.286 -9.830
O 92.175 23.471 -20.743
O 48.074 29.706 -6.508
O 54.198 3.069 -4.300
O 89.335 25.147 -1.165
O 81.806 21.340 -5.899
O 226.879 20.145 -6.168
O 42.816 19.008 -26.136
O 72.233 25.198 -30.657
O 87.208 20.246 -11.428
O 238.358 27.095 -19.102
O 51.454 5.993 -7.317
O 103.575 17.927 -18.766
O 235.659 17.683 -5.457
O 59.369 10.420 -22.533
O 236.501 11.337 -30.622
O 52.602 24.951 -22.370
O 60.112 22.674 -23.928
O 240.949 20.557 -16.278
O 242.170 29.664 -2.288
O 53.638 16.387 -7.351
O 40.778 13.308 -3.287
O 73.058 18.069 -25.258
O 224.377 17.332 -13.550
O 64.986 6.814 -4.858
O 91.590 21.335 -0.704
O 49.341 15.820 -12.472
O 109.524 11.313 -24.883
O 64.712 15.111 -14.553
O 74.770 9.109 -12.197
O 111.828 25.703 -13.080
O 46.690 17.061 -4.055
O 78.083 10.943 -26.414
O 74.654 8.152 -19.088
O 232.453 19.590 -2.865
O 111.366 7.282 -30.147
O 55.561 21.640 -3.166
O 71.477 8.347 -20.571
O 43.465 31.002 -2.867
O 64.440 15.547 -11.251
O 59.810 20.390 -22.486
O 109.360 30.832 -11.396
O 237.861 29.372 -10.501
O 89.179 22.448 -6.322
O 79.479 4.975 -3.685
O 70.502 1.938 -30.437
O 57.556 22.037 -5.195
O 78.461 17.142 -4.321
O 103.809 0.453 -12.422
O 71.611 18.643 -29.863
O 97.558 26.284 -27.764
O 65.352 23.563 -17.129
O 90.654 15.734 -13.828
O 96.474 10.012 -15.767
O 48.811 4.855 -12.148
O 232.313 8.109 -20.098
O 108.623 4.867 -28.987
O 234.937 4.146 -11.083
O 57.348 7.139 -3.064
O 43.862 20.595 -12.295
O 111.418 5.809 -17.517
O 66.422 18.469 -8.404
O 47.769 16.566 -9.154
O 42.103 27.143 -19.498
O 77.545 28.114 -28.863
O 42.460 12.985 -14.189
O 114.159 10.940 -15.687
O 102.622 25.572 -14.204
O 240.406 13.665 -19.830
O 233.622 24.284 -17.561
O 95.423 27.150 -19.425
O 109.915 2.553 -3.941
O 228.728 30.911 -13.861
O 231.860 29.769 -25.628
O 77.455 2.515 -2.647
O 58.790 10.079 -30.632
O 239.125 4.047 -31.183
O 232.973 2.074 -23.836
O 66.584 20.985 -18.144
O 111.809 12.829 -3.946
O 74.854 6.135 -3.065
O 54.657 13.657 -3.518
O 95.968 25.186 -25.683
O 77.282 23.216 -13.641
O 52.783 4.643 -18.281
O 81.195 19.009 -7.245
O 70.984 26.477 -28.610
O 223.300 27.935 -23.257
O 55.844 6.453 -10.688
O 110.292 7.743 -7.774
O 52.962 8.970 -3.610
O 65.209 28.583 -17.441
O 234.872 19.866 -11.428
O 222.063 13.664 -2.745
O 242.253 10.226 -24.809
O 50.599 24.451 -6.856
O 79.900 26.860 -13.084
O 70.315 5.686 -19.648
O 41.711 2.706 -19.753
O 54.186 11.173 -1.814
O 107.586 16.769 -22.973
O 105.913 2.868 -11.741
O 237.206 29.366 -7.704
O 99.318 2.633 -27.359
O 224.586 7.084 -2.119
O 233.423 17.582 -21.585
O 79.720 21.284 -24.037
O 51.734 26.273 -29.358
O 102.796 14.388 -10.415
O 104.429 23.470 -10.492
O 46.727 22.278 -13.969
O 69.511 2.266 -10.918
O 50.607 13.985 -23.125
O 234.639 0.734 -29.342
O 99.783 30.120 -26.018
O 68.629 1.341 -1.989
O 105.404 11.971 -10.331
O 104.921 29.914 -2.485
O 72.354 6.470 -0.078
O 106.918 21.347 -23.680
O 232.669 13.692 -0.885
O 105.138 21.812 -16.856
O 223.587 30.517 -21.729
O 61.625 11.203 -21.227
O 65.319 5.253 -29.493
O 63.755 21.826 -29.541
O 64.232 14.498 -8.306
O 73.882 2.473 -27.284
O 112.943 13.076 -20.979
O 41.793 0.379 -9.080
O 238.168 26.378 -16.413
O 100.255 9.577 -16.932
O 89.729 4.990 -20.947
O 221.221 20.222 -15.220
O 91.098 13.110 -30.488
O 81.432 23.048 -31.290
O 84.107 5.413 -2.105
O 224.704 27.390 -3.595
O 241.749 26.961 -5.354
O 91.395 21.063 -15.847
O 83.662 12.388 -0.190
O 84.698 4.647 -14.554
O 75.232 8.256 -7.680
O 78.874 6.573 -9.755
O 46.449 22.527 -29.987
O 44.658 26.604 -29.845
O 233.831 13.719 -13.492
O 231.994 27.262 -27.759
O 81.772 11.785 -17.712
O 69.372 21.448 -24.658
O 43.556 21.794 -16.195
O 232.949 6.990 -9.942
O 88.891 25.421 -16.715
O 87.451 3.260 -17.691
O 230.518 22.239 -24.974
O 87.636 22.379 -30.231
O 238.538 22.960 -18.060
O 51.505 12.336 -7.525
O 65.493 18.263 -11.853
O 41.336 7.737 -15.614
O 112.264 8.998 -4.107
O 72.620 29.895 -22.638
O 91.079 12.407 -11.167
O 51.640 4.525 -15.550
O 52.451 3.358 -11.014
O 225.905 10.192 -27.521
O 54.512 19.628 -23.885
O 91.962 11.782 -1.686
O 112.394 7.029 -6.085
O 49.081 4.281 -20.367
O 77.603 27.196 -24.431
O 109.850 20.590 -18.863
O 107.375 2.988 -0.887
O 76.473 8.528 -10.279
O 112.060 21.447 -17.201
O 110.532 30.961 -23.773
O 50.676 15.025 -4.895
O 223.773 13.146 -15.050
O 62.902 10.836 -5.270
O 80.709 2.468 -5.036
O 82.492 3.367 -27.498
O 226.349 2.092 -25.381
O 92.937 5.544 -4.062
O 234.354 18.625 -27.166
O 96.082 2.970 -0.838
O 53.124 22.984 -29.448
O 63.848 14.204 -4.778
O 81.380 30.136 -31.151
O 64.501 8.277 -14.795
O 87.061 15.833 -5.691
O 81.036 19.309 -0.773
O 51.137 10.008 -5.195
O 58.473 20.727 -0.501
O 55.657 3.604 -26.018
O 54.800 1.844 -15.880
O 87.030 8.300 -8.340
O 225.648 1.162 -6.269
O 83.662 2.370 -10.313
O 66.484 3.359 -5.646
O 44.015 24.077 -29.410
O 96.535 4.225 -20.630
O 109.418 21.575 -30.818
O 92.951 26.761 -15.296
O 61.795 28.625 -4.293
O 240.046 28.279 -3.456
O 73.562 14.894 -29.884
O 107.465 25.712 -22.639
O 62.204 9.809 -11.988
O 46.426 23.811 -3.160
O 49.638 0.621 -22.577
O 55.646 13.362 -10.826
O 90.016 31.360 -25.026
O 102.101 30.250 -14.354
O 93.159 16.549 -21.658
O 221.427 18.026 -16.954
O 102.137 11.417 -10.480
O 49.229 6.749 -21.626
O 70.300 1.863 -4.594
O 44.427 6.047 -3.801
O 75.734 18.317 -5.021
O 64.403 28.074 -26.301
O 47.588 1.792 -1.745
O 45.352 24.063 -15.921
O 241.772 2.316 -12.871
O 49.303 3.943 -0.250
O 68.520 19.799 -31.144
O 230.718 9.952 -31.366
O 49.417 11.837 -25.064
O 73.068 26.726 -23.056
O 108.833 25.924 -29.593
O 102.850 12.636 -27.983
O 226.194 22.453 -28.735
O 71.829 3.494 -0.870
O 89.681 16.551 -24.209
O 232.396 13.418 -9.625
O 66.778 1.086 -4.249
O 231.580 28.921 -10.084
O 108.656 21.637 -21.080
O 99.931 8.859 -20.346
O 241.492 31.195 -26.355
O 227.409 19.726 -25.301
O 40.955 20.915 -29.798
O 100.578 16.947 -22.044
O 76.309 10.864 -28.338
O 105.941 5.102 -5.662
O 45.880 3.359 -6.820
O 231.847 16.913 -19.256
O 230.353 30.877 -28.500
O 46.451 7.254 -21.645
O 58.589 26.921 -26.471
O 240.265 24.203 -13.414
O 73.072 16.086 -7.330
O 48.987 8.222 -4.278
O 59.645 17.881 -21.167
O 42.104 7.832 -9.315
O 91.862 23.817 -31.126
O 96.319 22.103 -25.947
O 95.434 16.361 -30.969
O 91.039 6.536 -13.854
O 115.132 16.839 -6.694
O 103.907 26.053 -22.753
O 100.783 31.249 -4.478
O 226.808 16.342 -10.042
O 64.126 21.425 -20.881
O 68.831 7.457 -17.596
O 73.884 19.401 -14.796
O 74.905 9.847 -21.407
O 69.898 9.543 -27.692
O 229.203 21.731 -6.106
O 222.800 16.354 -27.786
O 73.044 11.570 -15.129
O 70.598 23.704 -8.683
O 45.210 30.206 -14.100
O 46.627 26.924 -18.291
O 236.911 10.114 -5.706
O 87.742 18.354 -15.980
O 229.656 23.337 -13.998
O 69.007 3.827 -13.205
O 54.755 3.164 -19.734
O 75.742 13.105 -12.259
O 240.921 26.236 -16.937
O 94.919 13.788 -11.934
O 61.107 28.949 -0.073
O 231.236 21.917 -21.191
O 101.434 10.992 -5.454
O 238.823 30.652 -25.529
O 58.396 12.221 -24.685
O 109.911 9.458 -2.924
O 56.200 28.085 -14.608
O 54.141 18.746 -12.991
O 70.926 7.995 -25.742
O 67.887 23.689 -28.731
O 223.872 13.866 -7.372
O 61.966 9.054 -15.378
O 41.640 27.074 -7.354
O 90.060 18.957 -14.267
O 50.406 16.753 -18.532
O 231.603 15.396 -13.660
O 53.556 15.507 -1.622
O 55.389 2.334 -9.007
O 110.549 31.120 -13.868
O 85.167 29.244 -23.093
O 41.112 14.956 -30.149
O 101.441 21.275 -21.272
O 90.736 26.584 -4.685
O 74.477 7.511 -27.972
O 65.606 1.817 -19.830
O 95.104 29.567 -2.817
O 54.907 12.566 -6.936
O 233.153 1.950 -31.429
O 107.104 28.890 -9.680
O 223.820 11.963 -27.948
O 76.162 5.161 -28.768
O 74.302 29.981 -30.290
O 87.012 28.973 -28.754
O 98.410 21.224 -18.254
O 60.534 28.663 -9.711
O 60.245 10.409 -1.459
O 82.906 5.481 -22.478
O 97.775 25.143 -16.830
O 113.420 20.078 -15.101
O 79.134 19.232 -17.435
O 85.219 8.391 -24.884
O 43.279 6.704 -1.484
O 89.221 26.424 -9.508
O 223.794 16.822 -24.039
O 108.993 3.524 -20.552
O 96.696 3.736 -13.333
O 106.059 20.294 -8.566
O 83.662 18.471 -16.975
O 47.371 26.178 -31.046
O 80.457 24.611 -3.989
O 60.760 5.684 -0.242
O 230.507 28.515 -5.742
O 110.288 27.906 -17.330
O 40.570 31.306 -4.617
O 97.421 30.505 -27.686
O 69.338 5.379 -23.035
O 73.474 13.594 -26.027
O 97.956 17.363 -30.471
O 91.567 15.129 -11.209
O 238.882 22.867 -0.828
O 226.622 12.896 -1.996
O 231.151 11.719 -14.534
O 41.383 20.154 -9.566
O 54.130 0.756 -0.499
O 66.313 25.331 -20.231
O 92.739 17.936 -30.424
O 87.577 10.528 -10.370
O 67.996 0.732 -8.979
O 45.313 3.533 -3.984
O 78.180 19.989 -9.402
O 92.537 25.114 -24.968
O 227.414 27.864 -19.218
O 230.156 26.806 -15.355
O 87.103 8.227 -0.148
O 64.688 24.710 -14.895
O 55.493 1.064 -18.497
O 88.949 25.958 -12.383
O 82.224 24.306 -14.891
O 63.699 31.115 -22.053
O 70.033 11.340 -8.502
O 105.558 19.713 -12.240
O 61.048 3.426 -16.262
O 81.065 2.420 -20.999
O 237.501 15.069 -17.394
O 47.701 7.999 -25.926
O 67.843 19.387 -27.537
O 106.984 5.218 -24.648
O 93.774 24.939 -19.329
O 59.577 14.421 -10.965
O 229.641 15.266 -27.539
O 226.605 4.241 -17.595
O 111.339 28.862 -31.078
O 40.692 29.397 -19.415
O 78.015 5.364 -6.138
O 101.005 2.571 -4.941
O 66.469 21.988 -2.808
O 46.940 20.021 -17.240
O 230.237 14.539 -18.287
O 99.589 5.029 -23.775
O 93.597 17.945 -2.172
O 71.358 6.729 -15.087
O 76.439 7.612 -26.039
O 240.269 23.520 -21.824
O 111.070 19.889 -6.220
O 63.463 23.739 -19.235
O 80.759 19.425 -29.273
O 81.646 24.745 -9.930
O 88.257 30.597 -7.980
O 109.918 19.279 -25.942
O 65.847 11.626 -23.327
O 47.843 29.455 -10.868
O 102.315 17.935 -13.014
O 53.746 24.951 -0.395
O 102.013 9.294 -0.829
O 242.146 8.853 -11.261
O 100.679 20.952 -27.908
O 102.925 10.598 -22.378
O 72.571 17.855 -9.409
O 106.741 21.387 -3.619
O 102.542 24.351 -1.492
O 53.499 18.576 -29.105
O 104.961 31.043 -27.378
O 235.597 28.718 -24.315
O 43.150 1.432 -25.394
O 109.941 12.303 -29.387
O 231.806 22.457 -29.503
O 228.205 22.194 -16.312
O 46.296 11.060 -15.938
O 86.941 22.354 -21.213
O 225.663 11.762 -24.635
O 60.846 23.751 -11.989
O 62.110 0.565 -16.455
O 58.665 29.089 -22.428
O 56.050 17.223 -4.708
O 100.331 6.249 -30.844
O 45.365 2.827 -9.565
O 50.625 9.000 -23.614
O 67.539 16.629 -5.479
O 107.466 11.318 -18.401
O 91.363 3.385 -15.912
O 67.107 11.681 -11.529
O 63.049 23.354 -0.329
O 236.761 16.620 -15.431
O 93.605 15.010 -27.594
O 97.715 1.488 -9.915
O 75.084 4.899 -15.443
O 84.299 22.492 -10.111
O 49.022 12.600 -10.916
O 110.363 12.065 -10.389
O 64.414 2.617 -11.739
O 225.985 3.322 -20.091
O 55.613 8.821 -26.368
O 57.639 9.901 -28.226
O 91.823 9.464 -12.439
O 75.005 29.209 -9.642
O 111.245 7.167 -19.868
O 75.525 29.315 -13.296
O 95.735 21.261 -11.411
O 65.652 16.539 -16.815
O 62.254 31.216 -19.111
O 105.742 0.910 -14.385
O 227.759 26.482 -3.802
O 112.718 27.665 -11.324
O 230.837 30.335 -21.230
O 87.472 24.602 -18.933
O 43.882 14.552 -19.053
O 233.160 27.916 -2.930
O 44.460 6.283 -23.493
O 225.489 12.065 -19.908
O 82.031 14.721 -29.801
O 62.028 0.400 -25.391
O 92.593 26.205 -6.435
O 42.400 11.976 -18.731
O 70.692 24.525 -12.672
O 231.450 9.337 -4.666
O 104.422 16.430 -4.007
O 92.341 20.420 -29.504
O 234.550 20.584 -23.742
O 74.612 22.729 -13.713
O 47.001 0.344 -22.564
O 235.771 3.161 -28.518
O 49.350 29.106 -8.834
O 69.947 9.679 -22.725
O 229.650 11.842 -5.761
O 48.183 7.436 -29.212
O 105.260 10.939 -29.730
O 223.808 22.268 -18.518
O 75.590 3.931 -4.423
O 73.338 22.868 -27.538
O 90.852 2.736 -3.805
O 78.185 10.826 -12.485
O 49.624 3.267 -27.837
O 68.604 9.316 -30.383
O 86.802 30.425 -0.627
O 113.600 15.860 -20.891
O 66.926 5.934 -18.932
O 62.726 12.858 -11.948
O 239.907 29.100 -12.721
O 41.747 4.664 -17.887
O 51.856 16.043 -28.637
O 76.001 20.262 -0.070
O 106.358 12.946 -23.344
O 53.166 3.462 -0.279
O 43.439 13.514 -5.707
O 42.142 10.840 -8.752
O 89.024 18.687 -20.110
O 53.628 18.438 -18.911
O 70.792 27.348 -12.632
O 40.505 17.792 -6.779
O 49.765 19.177 -19.852
O 105.967 7.387 -17.813
O 89.443 13.276 -14.897
O 223.437 2.325 -26.120
O 228.939 14.748 -13.726
O 91.618 18.710 -17.421
O 79.216 15.956 -0.413
O 76.166 25.419 -0.548
O 110.186 21.347 -14.527
O 226.121 29.119 -17.009
O 240.107 20.561 -1.871
O 73.620 16.237 -19.701
C 169.070 19.840 -1.379
O 169.269 19.149 -2.289
O 168.871 20.531 -0.469
C 151.186 27.915 -8.962
O 150.061 27.870 -8.683
O 152.311 27.960 -9.241
C 215.515 14.165 -21.381
O 216.264 13.515 -21.983
O 214.766 14.816 -20.781
C 204.941 21.820 -25.719
O 205.563 22.793 -25.830
O 204.319 20.847 -25.608
C 205.318 7.814 -7.686
O 206.325 8.297 -8.000
O 204.311 7.331 -7.373
C 123.323 19.182 -22.647
O 122.437 19.252 -21.901
O 124.209 19.111 -23.393
C 211.521 21.248 -26.667
O 212.535 21.810 -26.683
O 210.506 20.687 -26.651
C 145.123 31.003 -2.074
O 144.188 30.574 -1.537
O 146.057 0.001 -2.611
C 107.087 0.520 -30.809
O 107.419 31.266 -0.251
O 106.754 1.207 -29.936
C 153.342 4.463 -18.979
O 152.334 3.958 -19.252
O 154.350 4.968 -18.706
C 133.210 11.169 -5.870
O 132.986 10.329 -5.103
O 133.434 12.010 -6.638
C 207.470 17.368 -19.887
O 208.524 17.594 -19.460
O 206.415 17.143 -20.315
C 155.182 27.351 -0.685
O 154.357 27.984 -1.201
O 156.006 26.719 -0.170
C 154.427 27.040 -28.459
O 154.390 28.183 -28.654
O 154.463 25.897 -28.264
C 162.111 26.474 -0.235
O 163.138 26.386 -31.135
O 161.084 26.563 -0.768
C 218.632 26.405 -12.011
O 219.731 26.775 -11.997
O 217.532 26.035 -12.026
C 114.961 24.845 -6.867
O 114.902 24.141 -7.787
O 115.019 25.549 -5.947
C 216.769 23.736 -14.274
O 217.375 22.905 -13.737
O 216.162 24.566 -14.811
C 136.393 23.295 -0.546
O 135.337 23.645 -0.875
O 137.449 22.946 -0.216
C 185.322 18.948 -20.427
O 184.801 19.451 -21.333
O 185.843 18.446 -19.520
C 162.217 0.395 -6.727
O 161.636 31.317 -5.862
O 162.798 0.904 -7.592
C 182.721 9.516 -27.030
O 182.975 8.994 -28.035
O 182.467 10.039 -26.026
C 136.394 27.407 -17.903
O 136.303 28.237 -18.707
O 136.486 26.576 -17.098
C 221.176 10.268 -29.571
O 221.282 10.587 -28.461
O 221.069 9.950 -30.682
C 183.623 25.405 -9.124
O 184.018 25.895 -10.099
O 183.228 24.916 -8.149
C 144.183 20.608 -24.308
O 144.883 21.402 -24.785
O 143.484 19.814 -23.832
C 129.093 26.960 -21.549
O 129.000 27.988 -21.020
O 129.185 25.932 -22.079
C 116.408 6.970 -17.248
O 116.835 6.209 -16.484
O 115.980 7.730 -18.013
C 43.783 10.618 -3.394
O 42.842 9.993 -3.657
O 44.725 11.243 -3.132
C 110.487 3.544 -23.407
O 111.250 4.181 -22.809
O 109.724 2.906 -24.005
C 213.054 7.907 -4.623
O 213.497 7.298 -5.506
O 212.612 8.516 -3.740
C 137.618 21.814 -16.099
O 136.940 20.906 -15.848
O 138.295 22.722 -16.350
C 117.977 30.189 -11.946
O 117.290 29.841 -12.814
O 118.663 30.538 -11.078
C 122.502 1.984 -19.129
O 123.133 2.958 -19.133
O 121.871 1.011 -19.125
C 135.746 2.559 -9.625
O 135.425 1.450 -9.513
O 136.067 3.668 -9.737
C 219.022 14.602 -20.502
O 219.832 14.053 -21.124
O 218.211 15.151 -19.879
C 221.287 16.911 -10.174
O 220.977 17.509 -11.119
O 221.596 16.313 -9.230
C 112.885 29.962 -16.521
O 113.910 29.479 -16.272
O 111.860 30.444 -16.770
C 184.867 13.671 -25.866
O 183.960 12.949 -25.835
O 185.775 14.393 -25.896
C 164.110 17.134 -0.287
O 163.788 18.091 -0.857
O 164.431 16.175 -31.149
C 219.127 30.924 -13.555
O 218.065 30.703 -13.144
O 220.189 31.146 -13.966
C 115.436 25.947 -11.851
O 115.553 26.403 -12.911
O 115.319 25.492 -10.790
C 115.105 27.353 -25.760
O 114.854 27.841 -24.738
O 115.357 26.865 -26.782
C 203.248 25.618 -22.975
O 203.551 25.263 -21.913
O 202.945 25.974 -24.037
C 115.565 0.890 -31.031
O 115.743 0.074 -30.226
O 115.387 1.705 -0.404
C 218.695 6.505 -22.409
O 217.624 6.648 -22.831
O 219.767 6.363 -21.988
C 180.828 12.832 -1.292
O 181.913 12.463 -1.469
O 179.743 13.202 -1.114
C 113.487 0.623 -22.955
O 113.314 1.626 -23.511
O 113.659 31.052 -22.399
C 156.539 23.053 -14.735
O 157.381 22.575 -15.373
O 155.697 23.531 -14.096
C 178.504 7.742 -10.281
O 178.066 8.664 -9.728
O 178.941 6.821 -10.833
C 217.806 14.766 -24.640
O 217.175 15.553 -25.212
O 218.438 13.980 -24.067
C 210.425 20.659 -8.951
O 210.029 21.746 -8.862
O 210.820 19.572 -9.040
C 177.279 21.892 -4.966
O 176.920 22.590 -4.112
O 177.638 21.194 -5.820
C 190.009 6.216 -28.644
O 191.077 5.766 -28.674
O 188.940 6.667 -28.614
C 115.127 3.027 -17.343
O 114.221 2.609 -17.934
O 116.034 3.446 -16.752
C 166.611 4.067 -23.716
O 165.644 3.492 -23.433
O 167.578 4.641 -23.999
C 205.079 26.620 -5.428
O 205.630 27.371 -6.119
O 204.528 25.868 -4.738
C 173.167 3.511 -25.538
O 173.926 3.660 -26.403
O 172.408 3.361 -24.674
C 148.077 7.387 -2.419
O 148.655 8.233 -2.962
O 147.498 6.541 -1.876
C 134.662 9.309 -0.666
O 134.096 9.631 -1.626
O 135.229 8.987 -31.138
C 168.934 22.419 -24.137
O 169.583 21.462 -24.037
O 168.285 23.375 -24.236
C 162.494 21.996 -18.383
O 162.148 22.748 -17.570
O 162.840 21.244 -19.195
C 216.493 7.002 -13.379
O 217.300 7.429 -12.663
O 215.686 6.575 -14.094
C 216.030 1.753 -13.364
O 216.270 2.055 -12.270
O 215.790 1.451 -14.457
C 215.133 11.639 -2.480
O 216.251 11.942 -2.536
O 214.014 11.337 -2.425
C 126.796 8.949 -22.506
O 126.483 10.045 -22.718
O 127.109 7.852 -22.293
C 215.783 11.896 -10.159
O 214.872 11.223 -10.411
O 216.694 12.569 -9.908
C 171.849 1.492 -8.049
O 171.983 1.242 -9.174
O 171.716 1.742 -6.925
C 202.227 2.468 -2.179
O 202.508 2.529 -1.055
O 201.946 2.407 -3.303
C 119.376 3.719 -14.279
O 119.396 4.817 -14.652
O 119.355 2.621 -13.907
C 239.268 6.544 -10.027
O 238.676 6.003 -10.864
O 239.861 7.085 -9.189
C 162.596 9.855 -21.251
O 162.045 10.191 -20.287
O 163.146 9.520 -22.215
C 69.289 5.207 -29.931
O 69.855 5.342 -30.935
O 68.724 5.071 -28.927
C 136.249 11.828 -4.454
O 136.562 12.029 -5.553
O 135.935 11.627 -3.356
C 196.878 21.290 -17.064
O 196.855 21.081 -18.205
O 196.901 21.500 -15.924
C 168.095 14.091 -1.788
O 168.021 13.283 -2.617
O 168.170 14.899 -0.959
C 176.415 31.125 -9.528
O 176.537 0.841 -9.647
O 176.294 29.978 -9.409
C 182.539 7.967 -31.081
O 182.827 6.998 -30.512
O 182.251 8.936 -0.217
C 216.284 26.589 -7.296
O 216.332 27.227 -8.264
O 216.235 25.951 -6.328
C 139.854 4.803 -4.671
O 139.359 4.965 -3.634
O 140.349 4.640 -5.707
C 234.706 23.163 -27.236
O 235.226 22.546 -28.070
O 234.186 23.781 -26.403
C 211.719 29.561 -14.980
O 211.554 30.588 -15.492
O 211.884 28.533 -14.467
C 119.000 11.107 -17.747
O 119.234 10.141 -18.346
O 118.766 12.072 -17.148
C 182.317 6.635 -3.328
O 181.496 6.699 -4.145
O 183.138 6.570 -2.511
C 149.513 21.684 -24.208
O 149.889 20.587 -24.195
O 149.136 22.781 -24.221
C 174.960 18.892 -10.338
O 175.658 19.513 -9.650
O 174.262 18.271 -11.025
C 122.562 1.333 -10.264
O 122.957 0.465 -9.604
O 122.167 2.201 -10.925
C 140.134 14.479 -14.821
O 140.334 15.344 -14.075
O 139.934 13.614 -15.568
C 118.383 22.537 -9.418
O 118.157 22.218 -8.326
O 118.609 22.855 -10.511
C 139.972 30.062 -17.451
O 140.924 29.842 -18.077
O 139.021 30.282 -16.825
C 151.008 28.621 -2.828
O 151.588 28.183 -3.732
O 150.428 29.059 -1.925
C 158.835 27.373 -28.567
O 159.140 26.254 -28.606
O 158.530 28.491 -28.529
C 143.910 29.715 -28.811
O 143.794 28.740 -28.192
O 144.026 30.689 -29.430
C 158.411 12.046 -6.431
O 158.973 12.056 -5.417
O 157.848 12.036 -7.446
C 50.348 22.360 -15.403
O 50.023 22.177 -16.502
O 50.672 22.542 -14.305
C 218.368 17.478 -13.135
O 218.760 18.560 -13.281
O 217.976 16.396 -12.990
C 218.565 24.366 -17.425
O 219.438 25.129 -17.395
O 217.692 23.602 -17.456
C 224.298 3.921 -10.943
O 224.357 4.920 -11.531
O 224.240 2.923 -10.354
C 218.508 25.379 -2.120
O 217.538 25.825 -2.575
O 219.478 24.933 -1.666
C 215.187 19.259 -3.209
O 215.864 18.363 -2.915
O 214.511 20.154 -3.503
C 114.884 0.373 -27.458
O 114.248 1.174 -28.006
O 115.521 31.005 -26.911
C 141.111 25.879 -4.904
O 140.384 26.781 -4.842
O 141.838 24.977 -4.966
C 118.697 17.835 -23.985
O 119.724 17.431 -23.628
O 117.669 18.238 -24.343
C 142.325 22.023 -30.011
O 142.823 22.530 -29.094
O 141.826 21.516 -30.927
C 114.432 21.951 -9.944
O 115.551 22.007 -10.245
O 113.313 21.895 -9.643
C 133.674 3.174 -13.588
O 132.870 3.020 -14.410
O 134.478 3.327 -12.766
C 162.828 14.648 -14.083
O 161.783 15.152 -14.069
O 163.873 14.144 -14.097
C 121.268 20.175 -8.483
O 122.276 20.713 -8.282
O 120.261 19.636 -8.684
C 183.719 2.190 -1.534
O 183.197 1.182 -1.295
O 184.241 3.198 -1.773
C 213.440 22.365 -7.706
O 213.510 21.867 -8.752
O 213.369 22.863 -6.661
C 219.281 16.204 -6.233
O 218.417 16.976 -6.197
O 220.146 15.431 -6.270
C 221.869 4.056 -23.901
O 222.875 4.100 -23.324
O 220.864 4.012 -24.477
C 128.930 2.314 -13.846
O 128.930 1.263 -13.357
O 128.931 3.366 -14.336
C 190.724 30.658 -24.148
O 191.711 30.662 -24.757
O 189.736 30.654 -23.539
C 77.260 5.636 -13.194
O 77.073 6.770 -13.040
O 77.446 4.501 -13.347
C 120.925 18.548 -3.970
O 120.743 17.724 -4.766
O 121.106 19.373 -3.175
C 130.445 8.843 -26.280
O 129.892 9.377 -25.412
O 130.998 8.309 -27.149
C 126.775 25.448 -13.242
O 126.697 24.515 -13.927
O 126.853 26.381 -12.558
C 217.947 22.664 -27.918
O 217.201 21.789 -27.766
O 218.694 23.539 -28.069
C 178.755 20.723 -27.864
O 178.024 21.331 -27.201
O 179.487 20.115 -28.527
C 152.519 22.390 -26.564
O 152.286 21.986 -27.627
O 152.753 22.793 -25.502
C 201.772 7.769 -4.012
O 200.908 8.543 -4.029
O 202.635 6.994 -3.994
C 221.145 31.102 -27.130
O 221.163 0.820 -27.278
O 221.126 29.951 -26.982
C 129.491 9.801 -7.167
O 130.227 9.264 -7.885
O 128.754 10.338 -6.450
C 146.780 7.564 -25.817
O 147.938 7.494 -25.800
O 145.622 7.634 -25.834
C 221.644 16.879 -21.129
O 221.053 17.288 -22.039
O 222.235 16.470 -20.218
C 177.104 1.648 -22.223
O 176.813 2.662 -21.742
O 177.394 0.633 -22.705
C 216.159 27.847 -24.481
O 216.693 28.598 -25.186
O 215.625 27.095 -23.777
C 183.757 29.115 -5.955
O 184.038 29.502 -7.012
O 183.476 28.728 -4.899
C 239.638 20.698 -23.783
O 240.173 21.306 -24.614
O 239.104 20.091 -22.952
C 173.589 3.243 -16.745
O 172.552 2.724 -16.708
O 174.626 3.762 -16.783
C 219.399 10.429 -22.372
O 219.371 9.922 -21.328
O 219.426 10.935 -23.415
C 178.508 23.035 -16.501
O 177.368 23.187 -16.652
O 179.648 22.883 -16.351
C 192.463 10.244 -18.816
O 192.880 10.880 -17.940
O 192.046 9.608 -19.692
C 172.170 4.826 -13.109
O 171.611 4.661 -14.112
O 172.729 4.991 -12.106
C 118.699 21.527 -20.264
O 118.431 21.386 -19.144
O 118.967 21.668 -21.384
C 182.976 0.312 -15.140
O 183.041 0.994 -14.204
O 182.911 31.062 -16.076
C 219.058 29.013 -6.331
O 219.007 28.039 -5.704
O 219.109 29.987 -6.959
C 160.336 30.149 -3.066
O 160.513 30.488 -1.971
O 160.160 29.810 -4.161
C 146.810 19.235 -26.993
O 146.067 19.423 -26.122
O 147.553 19.046 -27.864
C 218.456 17.667 -28.072
O 217.502 17.750 -28.727
O 219.409 17.584 -27.416
C 218.224 24.999 -21.565
O 218.645 25.875 -22.198
O 217.802 24.123 -20.931
C 189.969 22.090 -10.516
O 188.907 22.271 -10.087
O 191.032 21.910 -10.945
C 220.457 19.885 -3.727
O 219.706 20.313 -4.501
O 221.207 19.456 -2.952
C 208.781 9.101 -30.227
O 207.729 9.062 -29.740
O 209.834 9.140 -30.713
C 116.792 19.765 -6.402
O 115.830 19.840 -7.046
O 117.754 19.690 -5.757
C 83.883 9.490 -19.372
O 84.146 9.538 -20.501
O 83.620 9.441 -18.243
C 114.704 24.168 -28.238
O 115.250 24.305 -29.253
O 114.158 24.031 -27.224
C 175.987 1.588 -25.502
O 175.004 1.206 -25.018
O 176.969 1.971 -25.985
C 183.824 17.054 -14.112
O 184.343 16.267 -13.436
O 183.306 17.840 -14.789
C 219.998 2.172 -3.242
O 221.133 2.206 -3.477
O 218.863 2.137 -3.006
C 115.040 6.274 -0.909
O 115.585 7.196 -0.462
O 114.496 5.353 -1.356
C 213.140 16.439 -28.016
O 214.001 16.678 -27.277
O 212.279 16.200 -28.756
C 210.778 29.045 -29.885
O 210.382 28.167 -30.532
O 211.174 29.923 -29.238
C 166.870 15.542 -20.824
O 167.727 14.822 -20.522
O 166.012 16.262 -21.127
C 187.072 27.873 -22.857
O 187.331 26.764 -23.078
O 186.813 28.982 -22.635
C 177.994 19.984 -0.141
O 179.154 19.980 -0.099
O 176.835 19.988 -0.183
C 115.329 17.050 -26.318
O 115.193 17.741 -27.239
O 115.465 16.359 -25.396
C 186.716 26.143 -28.689
O 185.977 26.019 -27.804
O 187.455 26.267 -29.575
C 105.313 20.960 -26.996
O 106.043 21.011 -27.896
O 104.583 20.909 -26.096
C 117.865 1.530 -17.773
O 118.788 2.180 -17.509
O 116.942 0.879 -18.038
C 137.409 14.109 -7.946
O 136.261 14.256 -7.870
O 138.557 13.961 -8.023
C 177.116 6.027 -22.058
O 176.016 5.730 -22.273
O 178.217 6.323 -21.844
C 220.542 9.663 -8.682
O 220.686 8.958 -7.772
O 220.397 10.367 -9.591
C 218.914 5.787 -7.283
O 219.880 5.326 -7.729
O 217.948 6.249 -6.836
C 162.740 22.341 -0.014
O 161.717 22.884 -31.396
O 163.764 21.797 -0.063
C 129.068 3.297 -27.452
O 129.364 2.985 -26.375
O 128.772 3.610 -28.529
C 144.211 0.261 -23.737
O 143.792 0.153 -24.814
O 144.630 0.370 -22.661
C 117.978 1.409 -27.726
O 118.800 0.616 -27.935
O 117.157 2.201 -27.517
C 59.706 16.961 -0.441
O 60.669 17.516 -0.111
O 58.743 16.405 -0.771
C 119.042 5.291 -30.439
O 118.211 4.854 -29.757
O 119.873 5.727 -31.120
C 218.407 16.674 -1.483
O 219.251 17.435 -1.252
O 217.563 15.913 -1.715
C 153.723 28.068 -24.829
O 153.464 27.528 -25.823
O 153.982 28.608 -23.836
C 98.816 28.302 -4.664
O 98.966 27.506 -5.494
O 98.666 29.099 -3.834
C 199.224 10.202 -20.251
O 198.474 10.233 -19.367
O 199.974 10.170 -21.135
C 153.227 24.604 -23.251
O 152.979 23.985 -22.302
O 153.475 25.224 -24.200
C 180.367 11.101 -4.453
O 180.864 10.195 -3.926
O 179.869 12.006 -4.980
C 149.619 12.614 -14.141
O 149.310 11.682 -13.523
O 149.928 13.545 -14.759
C 50.203 2.948 -5.381
O 51.288 2.910 -5.787
O 49.117 2.987 -4.974
C 131.930 13.537 -20.197
O 132.333 12.565 -20.685
O 131.527 14.509 -19.709
C 180.789 16.543 -29.181
O 180.555 17.025 -28.152
O 181.022 16.061 -30.210
C 85.236 16.194 -29.599
O 85.948 15.717 -30.381
O 84.524 16.670 -28.817
C 120.431 28.235 -10.181
O 120.000 27.705 -9.243
O 120.862 28.764 -11.119
C 174.677 29.946 -16.933
O 174.243 28.947 -17.333
O 175.110 30.945 -16.534
C 225.745 13.893 -22.919
O 226.904 13.860 -22.960
O 224.586 13.926 -22.877
C 172.633 1.635 -19.866
O 171.527 1.983 -19.813
O 173.738 1.288 -19.918
C 163.258 10.653 -0.137
O 163.584 9.542 -0.064
O 162.931 11.764 -0.210
C 139.301 20.009 -2.828
O 139.905 19.121 -2.389
O 138.698 20.897 -3.267
C 145.227 13.321 -12.758
O 145.081 13.924 -13.738
O 145.373 12.718 -11.777
C 185.684 23.285 -18.078
O 184.801 22.820 -17.487
O 186.567 23.749 -18.670
C 139.120 1.427 -10.357
O 139.677 0.457 -10.662
O 138.563 2.398 -10.051
C 241.949 0.895 -22.900
O 40.747 1.805 -22.983
O 241.236 31.416 -22.817
C 157.328 5.204 -5.582
O 156.609 4.389 -5.177
O 158.046 6.020 -5.987
C 143.551 3.545 -12.234
O 142.486 3.183 -11.954
O 144.617 3.907 -12.514
C 115.437 4.514 -25.262
O 115.998 3.786 -24.555
O 114.875 5.242 -25.969
C 123.643 30.379 -5.229
O 122.956 30.848 -6.038
O 124.330 29.909 -4.421
C 216.606 19.748 -10.063
O 216.474 20.718 -10.687
O 216.739 18.779 -9.440
C 189.666 0.861 -9.194
O 189.599 31.388 -8.472
O 189.733 1.766 -9.916
C 125.696 28.283 -30.011
O 125.079 27.303 -30.080
O 126.313 29.263 -29.942
C 231.286 7.938 -26.498
O 231.269 9.098 -26.510
O 231.303 6.779 -26.486
C 121.492 11.035 -26.507
O 122.104 11.476 -27.388
O 120.879 10.594 -25.626
C 165.437 28.076 -20.399
O 166.491 28.199 -20.868
O 164.383 27.953 -19.931
C 131.980 13.924 -24.396
O 131.496 14.201 -23.379
O 132.464 13.646 -25.413
C 218.644 8.521 -26.933
O 218.041 9.208 -27.648
O 219.248 7.834 -26.219
C 181.054 17.156 -21.356
O 180.040 17.285 -20.807
O 182.068 17.028 -21.905
C 202.518 17.688 -22.028
O 203.376 17.011 -22.419
O 201.661 18.364 -21.637
C 214.170 12.682 -6.454
O 213.247 13.094 -7.024
O 215.092 12.269 -5.884
C 194.978 19.234 -19.490
O 194.371 20.206 -19.675
O 195.584 18.262 -19.306
C 166.234 16.947 -15.757
O 165.703 17.274 -14.779
O 166.765 16.620 -16.736
C 54.111 31.394 -3.583
O 55.193 31.011 -3.747
O 53.028 0.345 -3.419
C 240.512 12.593 -30.302
O 240.468 12.232 -29.201
O 240.557 12.953 -31.404
C 115.441 11.233 -28.172
O 115.237 10.796 -29.227
O 115.645 11.670 -27.117
C 183.026 13.185 -19.589
O 183.113 13.937 -20.468
O 182.939 12.433 -18.710
C 219.282 12.690 -11.613
O 218.574 11.852 -11.993
O 219.989 13.527 -11.234
C 213.075 27.017 -8.547
O 212.872 27.466 -7.497
O 213.278 26.567 -9.597
C 200.082 7.283 -7.100
O 201.204 7.023 -7.236
O 198.959 7.543 -6.964
C 117.825 19.905 -13.556
O 117.739 21.005 -13.198
O 117.911 18.805 -13.913
C 111.251 4.368 -8.482
O 112.207 3.918 -8.001
O 110.296 4.817 -8.962
C 160.848 2.615 -26.278
O 161.604 2.324 -27.108
O 160.092 2.906 -25.448
C 173.335 22.800 -4.774
O 172.914 22.595 -3.713
O 173.756 23.005 -5.836
C 155.359 3.688 -24.578
O 155.103 2.685 -25.102
O 155.615 4.691 -24.055
C 120.166 15.115 -9.444
O 120.946 14.566 -8.784
O 119.386 15.664 -10.104
C 167.338 19.084 -24.882
O 167.655 19.697 -25.815
O 167.022 18.472 -23.949
C 138.474 8.064 -17.956
O 139.220 8.405 -17.136
O 137.729 7.724 -18.777
C 139.595 18.393 -19.319
O 140.061 17.567 -18.652
O 139.129 19.220 -19.987
C 203.784 26.462 -10.882
O 203.119 26.837 -11.755
O 204.450 26.086 -10.009
C 115.129 9.408 -21.725
O 115.296 10.504 -22.069
O 114.962 8.313 -21.381
C 113.703 21.924 -4.653
O 112.864 22.380 -3.994
O 114.542 21.469 -5.311
C 177.201 11.614 -3.440
O 176.771 12.689 -3.505
O 177.631 10.539 -3.376
C 178.798 16.726 -2.420
O 177.921 16.721 -1.661
O 179.676 16.730 -3.178
C 155.746 14.434 -4.898
O 155.762 13.425 -4.326
O 155.730 15.443 -5.470
C 218.185 12.486 -15.719
O 218.510 11.507 -16.249
O 217.861 13.465 -15.188
C 192.422 20.149 -13.795
O 192.941 19.218 -13.337
O 191.904 21.080 -14.253
C 216.561 3.638 -9.023
O 217.234 4.325 -9.672
O 215.888 2.952 -8.374
C 188.855 22.170 -19.178
O 188.728 21.815 -18.081
O 188.982 22.525 -20.275
C 102.826 2.750 -24.355
O 101.815 3.228 -24.047
O 103.837 2.272 -24.664
C 221.222 17.684 -24.941
O 220.820 16.602 -24.829
O 221.625 18.767 -25.053
C 149.942 9.996 -24.445
O 150.587 10.688 -25.117
O 149.297 9.304 -23.773
C 119.292 18.799 -31.277
O 118.607 19.705 -0.081
O 119.977 17.894 -31.040
C 193.327 12.141 -5.811
O 194.220 11.858 -6.496
O 192.434 12.424 -5.127
C 184.529 11.567 -3.586
O 184.066 12.478 -4.135
O 184.992 10.656 -3.037
C 212.694 29.863 -11.317
O 212.407 29.424 -10.283
O 212.981 30.302 -12.352
C 104.180 21.863 -30.852
O 104.389 21.050 -0.221
O 103.971 22.675 -30.051
C 136.691 24.607 -7.786
O 135.765 24.694 -8.479
O 137.617 24.520 -7.093
C 188.935 26.271 -19.423
O 188.209 26.838 -20.128
O 189.661 25.704 -18.717
C 118.474 12.514 -26.694
O 118.458 13.052 -25.666
O 118.490 11.976 -27.721
C 175.130 10.089 -11.318
O 174.699 11.166 -11.291
O 175.561 9.013 -11.346
C 124.930 3.263 -28.630
O 125.574 2.315 -28.456
O 124.285 4.212 -28.805
C 52.769 8.656 -16.947
O 51.647 8.441 -16.745
O 53.890 8.871 -17.150
C 108.850 22.856 -27.427
O 108.639 23.935 -27.056
O 109.062 21.777 -27.797
C 218.580 25.621 -25.970
O 218.660 24.778 -25.176
O 218.500 26.464 -26.763
C 214.050 26.815 -13.051
O 213.456 25.832 -12.891
O 214.645 27.798 -13.212
C 221.374 0.771 -17.148
O 220.615 1.151 -17.939
O 222.133 0.391 -16.358
C 182.953 15.916 -9.205
O 182.623 14.896 -8.763
O 183.282 16.937 -9.648
C 219.032 21.650 -23.982
O 218.075 21.938 -24.570
O 219.990 21.362 -23.395
C 166.936 12.871 -6.121
O 167.934 13.242 -6.580
O 165.937 12.500 -5.662
C 178.702 26.584 -23.576
O 178.397 27.617 -23.146
O 179.008 25.551 -24.006
C 218.491 28.414 -29.159
O 219.627 28.330 -29.378
O 217.355 28.499 -28.941
C 174.976 26.759 -4.428
O 173.859 26.444 -4.413
O 176.092 27.075 -4.442
C 150.519 28.046 -30.206
O 151.566 27.580 -30.388
O 149.472 28.511 -30.024
C 168.477 6.049 -5.595
O 168.177 5.875 -4.488
O 168.777 6.223 -6.702
C 134.684 20.317 -18.225
O 135.068 19.391 -18.809
O 134.300 21.243 -17.641
C 170.804 23.472 -30.128
O 170.667 23.619 -28.986
O 170.941 23.325 -31.270
C 172.291 29.956 -28.870
O 173.001 29.980 -27.953
O 171.581 29.933 -29.787
C 134.523 12.991 -30.085
O 134.252 11.871 -30.215
O 134.793 14.112 -29.955
C 117.243 27.945 -17.183
O 118.047 28.765 -17.348
O 116.439 27.126 -17.019
C 151.965 3.851 -6.340
O 151.715 3.122 -5.473
O 152.215 4.579 -7.208
C 182.299 4.062 -23.132
O 183.368 3.672 -22.907
O 181.230 4.452 -23.356
C 159.252 2.164 -8.908
O 158.653 2.184 -9.901
O 159.851 2.144 -7.915
C 177.963 27.300 -15.907
O 177.327 28.124 -15.393
O 178.598 26.477 -16.420
C 137.096 21.289 -27.582
O 137.028 20.154 -27.353
O 137.164 22.424 -27.811
C 166.244 17.352 -28.336
O 166.836 17.730 -29.259
O 165.652 16.973 -27.414
C 176.945 26.183 -0.756
O 177.815 26.862 -1.114
O 176.075 25.504 -0.399
C 221.308 9.517 -15.161
O 220.934 8.598 -15.762
O 221.682 10.436 -14.560
C 116.913 15.621 -18.448
O 117.257 15.961 -17.393
O 116.570 15.281 -19.502
C 149.885 1.104 -21.126
O 149.577 0.127 -20.582
O 150.193 2.081 -21.670
C 127.838 6.479 -17.824
O 127.604 7.531 -18.253
O 128.072 5.427 -17.394
C 215.095 1.085 -24.817
O 216.236 1.140 -24.614
O 213.955 1.029 -25.021
C 120.203 15.305 -27.351
O 120.748 14.419 -26.836
O 119.658 16.189 -27.866
C 133.051 27.846 -4.842
O 132.146 28.565 -4.938
O 133.956 27.127 -4.745
C 164.752 13.442 -10.477
O 163.875 13.109 -9.794
O 165.628 13.775 -11.160
C 221.556 2.875 -7.183
O 222.538 3.212 -7.701
O 220.575 2.538 -6.665
C 154.909 17.526 -13.026
O 154.349 17.612 -12.014
O 155.469 17.440 -14.038
C 220.946 28.171 -15.854
O 221.682 27.288 -16.008
O 220.210 29.055 -15.699
C 216.927 4.250 -26.149
O 217.428 5.074 -25.504
O 216.427 3.426 -26.794
C 215.100 23.562 -10.785
O 214.958 23.055 -11.819
O 215.242 24.068 -9.751
C 157.912 1.985 -4.496
O 157.610 1.727 -3.406
O 158.214 2.243 -5.586
C 180.003 11.969 -21.089
O 180.251 10.850 -21.270
O 179.756 13.088 -20.909
C 210.812 4.565 -3.663
O 210.153 5.164 -4.406
O 211.471 3.965 -2.919
C 187.107 21.599 -14.811
O 187.669 20.590 -14.703
O 186.544 22.608 -14.920
C 207.636 12.354 -7.993
O 208.119 13.090 -8.749
O 207.154 11.617 -7.238
C 154.495 19.062 -17.797
O 154.921 20.141 -17.807
O 154.069 17.984 -17.786
C 166.294 11.156 -22.416
O 166.189 10.741 -21.338
O 166.400 11.571 -23.494
C 217.590 17.501 -21.489
O 218.496 18.176 -21.225
O 216.684 16.827 -21.754
C 90.270 10.227 -25.586
O 90.283 11.385 -25.515
O 90.257 9.069 -25.657
C 118.815 7.158 -26.512
O 118.707 6.958 -27.649
O 118.924 7.358 -25.374
C 109.421 1.198 -8.312
O 110.533 1.491 -8.164
O 108.308 0.904 -8.460
C 112.673 2.179 -15.474
O 113.475 1.478 -15.016
O 111.871 2.881 -15.932
C 183.033 23.649 -1.520
O 183.899 23.811 -2.275
O 182.168 23.487 -0.765
C 197.008 13.386 -16.396
O 197.358 14.485 -16.273
O 196.657 12.287 -16.519
C 114.240 31.133 -8.332
O 114.928 31.099 -9.266
O 113.553 31.167 -7.399
C 214.749 16.023 -6.964
O 214.772 15.368 -6.007
O 214.725 16.678 -7.921
C 215.699 17.898 -18.218
O 216.485 17.422 -18.925
O 214.913 18.374 -17.510
C 115.703 5.307 -19.660
O 114.575 5.551 -19.776
O 116.832 5.063 -19.544
C 131.393 11.002 -1.213
O 131.664 12.021 -1.697
O 131.121 9.984 -0.728
C 239.722 20.898 -28.820
O 239.992 20.218 -27.920
O 239.453 21.578 -29.720
C 159.330 30.336 -13.768
O 159.877 31.359 -13.748
O 158.784 29.313 -13.787
C 126.900 7.084 -28.177
O 127.697 6.829 -27.373
O 126.103 7.339 -28.980
C 221.189 2.447 -10.694
O 220.853 1.337 -10.707
O 221.526 3.557 -10.682
C 66.942 9.004 -3.055
O 65.950 8.878 -2.467
O 67.934 9.130 -3.643
C 224.028 7.632 -8.705
O 224.033 8.016 -9.799
O 224.024 7.248 -7.610
3933
Lattice="31.432 0 0 0 31.432 0 0 0 190.531" Properties=species:S:1:pos:R:3 timestep=36395000
O 58.724 20.654 -27.275
O 70.653 21.724 -24.391
O 94.744 16.753 -0.424
O 226.009 13.368 -13.133
O 66.309 14.984 -5.447
O 87.915 28.671 -24.820
O 59.180 0.620 -21.029
O 119.168 17.977 -6.025
O 68.047 6.714 -2.939
O 56.492 18.251 -12.332
O 47.731 11.739 -24.765
O 224.565 27.744 -29.805
O 59.993 1.690 -0.856
O 225.241 12.973 -7.793
O 116.483 23.697 -27.869
O 94.415 29.906 -12.186
O 110.677 19.292 -31.287
O 121.574 19.465 -23.715
O 77.718 16.024 -22.880
O 102.166 30.034 -6.705
O 75.088 0.926 -2.170
O 218.939 4.471 -13.784
O 62.719 15.796 -18.800
O 51.807 9.688 -31.270
O 220.683 17.583 -19.221
O 223.979 12.442 -10.293
O 104.619 30.622 -15.368
O 232.097 0.453 -29.877
O 100.488 10.844 -6.002
O 99.969 21.519 -22.278
O 85.898 0.788 -14.037
O 228.698 30.716 -0.457
O 232.783 8.124 -11.509
O 106.735 18.987 -14.496
O 93.621 7.935 -11.808
O 63.294 22.285 -30.315
O 221.691 31.096 -29.659
O 235.548 28.035 -6.783
O 112.200 30.233 -14.982
O 227.414 15.933 -17.659
O 85.244 12.903 -17.252
O 94.973 20.697 -28.506
O 60.687 5.909 -26.797
O 56.809 4.060 -23.871
O 97.918 29.995 -30.037
O 70.140 2.541 -7.697
O 98.350 22.525 -7.909
O 234.600 13.923 -19.369
O 117.867 26.291 -5.283
O 99.177 11.454 -8.569
O 224.275 7.846 -19.742
O 83.029 17.123 -16.780
O 220.311 20.822 -16.103
O 230.167 12.265 -27.243
O 219.667 30.805 -5.922
O 100.979 29.178 -10.108
O 65.196 10.969 -3.539
O 111.652 31.257 -0.829
O 75.206 6.509 -6.316
O 235.936 1.971 -1.076
O 76.252 9.376 -24.177
O 82.168 25.611 -5.393
O 104.929 27.739 -16.504
O 80.946 25.813 -18.128
O 83.909 5.074 -18.596
O 57.919 19.331 -2.833
O 88.857 2.497 -30.458
O 225.650 30.676 -8.166
O 86.805 9.944 -11.293
O 74.287 27.032 -22.863
O 92.432 30.430 -18.290
O 78.905 1.480 -9.861
O 68.703 10.615 -7.738
O 46.392 5.053 -17.328
O 73.098 16.115 -14.690
O 99.085 4.856 -17.311
O 71.823 28.373 -13.514
O 219.661 4.258 -20.637
O 82.800 16.635 -20.424
O 120.587 1.835 -28.747
O 111.586 5.813 -20.682
O 56.383 24.838 -11.894
O 110.971 28.276 -23.494
O 79.927 18.725 -27.093
O 69.636 28.240 -3.342
O 218.862 17.348 -15.217
O 84.339 10.456 -16.256
O 86.681 24.803 -0.564
O 120.166 16.739 -1.370
O 89.400 19.682 -16.061
O 105.007 17.896 -9.231
O 54.285 4.784 -22.586
O 110.303 13.971 -2.782
O 103.013 30.922 -9.202
O 221.364 26.559 -11.182
O 225.191 20.818 -22.356
O 54.279 12.199 -12.130
O 117.142 21.695 -25.072
O 73.783 18.621 -27.867
O 51.879 19.396 -21.957
O 111.029 2.504 -17.903
O 101.941 1.564 -7.875
O 54.240 28.543 -17.510
O 92.575 30.902 -22.762
O 233.149 14.053 -30.791
O 100.130 28.525 -15.846
O 231.441 29.733 -19.011
O 227.719 6.015 -19.431
O 69.306 4.505 -5.920
O 87.808 4.772 -10.430
O 116.771 28.408 -3.581
O 114.805 9.304 -16.909
O 87.900 9.794 -18.824
O 80.899 22.532 -0.797
O 114.196 30.104 -29.845
O 105.076 14.670 -25.579
O 70.091 29.063 -22.018
O 55.943 5.983 -15.217
O 63.621 16.105 -3.227
O 118.447 15.950 -14.998
O 93.402 11.808 -10.700
O 92.519 16.717 -6.111
O 108.057 19.495 -23.981
O 225.851 29.091 -27.770
O 81.066 26.675 -15.267
O 103.573 19.585 -1.509
O 83.048 16.153 -25.447
O 224.767 24.012 -10.497
O 223.970 16.931 -0.750
O 226.639 18.061 -9.692
O 230.563 29.320 -29.744
O 70.725 16.546 -25.258
O 85.772 1.654 -9.995
O 69.759 20.057 -27.029
O 230.457 16.017 -3.739
O 69.040 27.363 -15.071
O 104.642 11.230 -11.270
O 93.989 9.629 -18.730
O 80.501 18.424 -16.573
O 233.286 18.564 -29.364
O 90.093 8.293 -18.575
O 87.733 28.046 -27.522
O 101.619 16.149 -7.740
O 87.710 22.054 -16.556
O 93.500 27.512 -22.089
O 93.933 4.314 -26.448
O 228.018 13.450 -26.077
O 105.105 6.188 -31.166
O 64.289 5.637 -4.015
O 73.617 1.737 -24.046
O 69.713 5.355 -16.915
O 80.859 30.887 -9.802
O 224.943 14.350 -22.590
O 91.450 28.698 -14.796
O 120.816 25.846 -14.372
O 231.560 1.291 -6.404
O 97.649 6.769 -3.489
O 115.206 22.491 -0.399
O 107.159 22.450 -20.551
O 102.712 9.637 -12.976
O 108.029 19.949 -4.554
O 93.598 4.582 -16.097
O 100.263 5.180 -25.204
O 56.169 17.111 -14.856
O 229.332 23.398 -28.161
O 90.526 15.618 -9.716
O 102.560 27.259 -8.728
O 47.219 13.955 -16.284
O 49.156 23.601 -20.529
O 116.426 19.605 -23.441
O 60.013 2.397 -28.750
O 77.293 12.448 -0.045
O 54.617 23.523 -14.252
O 235.357 20.171 -28.398
O 92.595 21.152 -9.047
O 74.693 24.408 -2.918
O 88.921 16.309 -17.216
O 221.964 8.830 -3.775
O 108.117 23.316 -6.653
O 86.407 27.824 -30.054
O 109.715 5.533 -10.770
O 61.943 7.803 -1.337
O 72.019 11.655 -3.932
O 230.179 18.490 -21.550
O 75.483 29.450 -9.092
O 58.209 7.730 -7.726
O 70.377 27.780 -26.383
O 56.644 26.094 -8.758
O 62.859 21.168 -21.245
O 85.996 15.387 -2.057
O 87.097 14.284 -21.926
O 224.204 8.401 -5.656
O 113.942 5.470 -27.183
O 115.742 28.038 -22.414
O 111.922 12.251 -19.137
O 94.247 28.812 -24.409
O 78.603 8.159 -16.248
O 57.939 11.103 -2.090
O 67.804 13.822 -23.951
O 108.827 29.968 -17.613
O 46.561 12.276 -30.880
O 90.922 9.691 -4.177
O 92.493 8.597 -27.375
O 231.325 15.173 -23.612
O 219.642 23.165 -26.033
O 224.133 14.300 -31.409
O 109.112 6.475 -2.681
O 54.097 20.233 -16.985
O 48.768 0.213 -11.290
O 82.027 5.934 -20.688
O 46.487 8.583 -20.275
O 224.485 4.838 -13.234
O 78.745 8.267 -8.998
O 108.290 10.855 -28.946
O 113.081 2.603 -10.891
O 220.087 15.418 -17.195
O 53.831 20.153 -4.367
O 67.961 26.344 -19.462
O 56.862 10.289 -14.821
O 53.035 26.475 -2.307
O 85.636 28.314 -15.194
O 84.237 11.062 -23.109
O 89.422 9.254 -14.037
O 89.273 22.479 -11.976
O 65.498 23.361 -23.072
O 236.269 25.906 -29.040
O 117.446 26.426 -10.407
O 78.284 15.035 -7.430
O 80.779 4.144 -18.876
O 46.259 5.493 -6.838
O 56.439 2.626 -19.724
O 96.807 25.569 -0.568
O 95.603 23.623 -11.235
O 101.871 17.604 -24.594
O 235.163 30.148 -11.690
O 113.213 26.765 -22.241
O 222.729 11.390 -17.579
O 223.670 16.296 -8.650
O 81.450 29.549 -0.288
O 99.030 2.723 -19.046
O 104.332 19.192 -4.598
O 77.093 4.653 -23.478
O 80.645 30.840 -15.898
O 97.974 17.391 -28.710
O 60.068 20.258 -14.323
O 114.012 19.006 -18.154
O 232.027 20.841 -30.351
O 54.056 9.809 -20.321
O 72.126 9.988 -13.891
O 60.591 24.195 -7.082
O 72.005 20.282 -16.513
O 73.841 24.633 -26.385
O 61.036 16.418 -3.083
O 234.904 12.642 -6.585
O 232.699 16.278 -5.599
O 50.799 0.906 -13.366
O 97.749 25.351 -29.133
O 69.035 13.608 -26.514
O 231.602 21.070 -18.721
O 230.554 10.956 -21.394
O 226.262 27.358 -10.153
O 74.510 29.763 -11.697
O 59.988 3.298 -24.490
O 94.868 24.524 -8.760
O 227.836 16.367 -25.717
O 115.954 17.607 -2.768
O 93.158 16.531 -16.809
O 95.065 7.502 -21.177
O 104.184 14.517 -18.287
O 91.410 11.527 -1.694
O 96.337 27.980 -26.363
O 112.955 23.286 -13.192
O 229.149 7.467 -0.751
O 88.571 7.209 -5.613
O 87.734 31.091 -28.092
O 226.964 2.696 -6.912
O 99.130 21.088 -30.233
O 71.039 30.249 -16.252
O 93.107 25.927 -13.334
O 78.092 22.844 -14.111
O 93.682 7.478 -15.415
O 59.363 16.562 -1.102
O 107.226 5.920 -9.228
O 87.676 9.092 -16.136
O 69.618 17.614 -11.509
O 62.234 24.495 -4.793
O 80.543 6.453 -15.681
O 69.521 30.189 -5.255
O 69.402 18.241 -29.014
O 85.189 16.502 -29.908
O 114.718 0.654 -19.918
O 229.368 17.519 -0.650
O 91.592 9.332 -0.193
O 46.261 7.856 -26.406
O 52.312 0.847 -25.810
O 219.906 14.834 -30.169
O 113.256 26.594 -25.038
O 79.596 6.449 -2.938
O 119.981 28.150 -12.576
O 66.745 21.118 -21.794
O 96.597 21.729 -5.644
O 221.965 3.107 -11.143
O 66.418 5.455 -5.817
O 74.960 27.186 -3.617
O 101.013 17.352 -0.816
O 78.927 2.531 -22.977
O 65.542 19.349 -10.003
O 120.969 7.397 -12.301
O 110.256 27.862 -1.085
O 51.998 29.716 -24.675
O 64.955 6.002 -27.595
O 54.446 25.965 -28.490
O 48.133 29.184 -27.773
O 69.434 17.358 -4.213
O 91.086 17.042 -12.606
O 119.419 28.942 -22.222
O 89.157 3.307 -4.168
O 61.074 2.254 -22.096
O 70.798 15.565 -7.854
O 91.307 4.811 -27.124
O 89.991 13.584 -16.944
O 221.370 5.978 -7.543
O 62.183 30.561 -25.172
O 235.616 6.347 -21.427
O 79.884 0.106 -30.445
O 230.277 6.395 -25.979
O 99.363 21.349 -18.611
O 49.769 12.985 -1.992
O 228.741 22.242 -1.551
O 77.291 24.247 -29.808
O 119.842 24.140 -6.970
O 70.937 15.331 -16.045
O 114.859 10.008 -30.791
O 95.691 15.922 -11.159
O 90.840 30.934 -10.306
O 222.677 24.089 -8.161
O 117.830 12.494 -10.523
O 122.317 18.596 -10.835
O 74.868 12.279 -3.090
O 119.526 8.133 -7.655
O 58.625 4.849 -28.289
O 109.816 22.123 -10.434
O 116.157 14.538 -14.350
O 75.793 23.547 -21.695
O 223.923 6.117 -30.158
O 110.922 11.665 -0.861
O 61.338 27.189 -18.814
O 74.312 18.357 -1.538
O 95.639 11.957 -14.440
O 109.249 21.300 -13.595
O 106.815 8.787 -25.053
O 96.624 11.765 -9.178
O 117.643 4.472 -15.155
O 50.368 11.402 -28.095
O 221.423 21.112 -11.927
O 51.272 16.425 -24.831
O 227.912 16.198 -13.492
O 116.110 1.431 -12.835
O 224.455 11.204 -13.756
O 113.547 1.618 -30.628
O 220.522 16.940 -24.259
O 112.892 10.265 -12.505
O 67.602 10.979 -16.837
O 119.567 3.064 -2.412
O 86.132 10.495 -13.982
O 54.734 20.721 -7.809
O 226.880 26.668 -23.954
O 74.156 4.186 -4.760
O 112.559 24.459 -15.752
O 47.227 14.675 -25.859
O 95.472 9.120 -8.632
O 118.057 24.987 -24.920
O 65.617 25.032 -14.296
O 113.678 2.324 -15.515
O 230.566 3.804 -30.928
O 88.458 18.467 -9.995
O 67.758 27.771 -22.966
O 120.156 28.381 -7.395
O 64.215 3.133 -21.303
O 97.417 17.983 -4.056
O 65.936 20.939 -0.646
O 105.086 25.891 -7.497
O 232.924 26.836 -16.387
O 85.379 13.882 -28.827
O 119.917 21.171 -27.840
O 110.384 7.876 -19.636
O 107.270 3.672 -30.554
O 47.535 21.389 -21.409
O 223.896 16.025 -13.007
O 102.650 16.984 -21.978
O 72.373 28.367 -10.376
O 86.108 31.213 -3.587
O 115.815 1.687 -1.275
O 82.233 29.377 -19.446
O 58.377 9.935 -23.150
O 74.570 11.556 -14.341
O 79.955 21.540 -23.529
O 62.638 31.174 -1.997
O 104.241 21.853 -24.556
O 226.398 17.869 -1.485
O 111.099 26.572 -4.624
O 92.431 30.685 -0.820
O 71.456 30.787 -9.260
O 54.015 24.386 -10.558
O 59.715 14.596 -25.617
O 225.862 7.575 -12.408
O 226.038 24.136 -29.145
O 100.318 19.094 -28.407
O 119.393 10.134 0.016
O 96.279 31.118 -28.057
O 78.318 17.703 -17.962
O 48.754 12.588 -13.945
O 227.389 13.579 -15.475
O 223.042 20.863 -9.396
O 56.881 12.339 -23.609
O 56.685 3.547 -26.538
O 88.540 28.762 -15.863
O 58.531 16.169 -5.824
O 72.434 18.656 -13.721
O 66.233 29.389 -29.885
O 75.532 29.949 -31.014
O 65.251 9.369 -11.245
O 227.685 13.145 -2.851
O 98.100 31.111 -25.737
O 97.565 13.956 -10.608
O 104.706 17.445 -25.512
O 105.088 17.973 -22.847
O 59.401 4.040 -13.272
O 80.455 25.452 -8.338
O 231.390 21.870 -21.375
O 117.669 27.659 -16.429
O 65.187 19.539 -26.897
O 89.016 25.604 -27.220
O 105.602 18.678 -19.688
O 79.624 22.985 -9.386
O 52.682 30.797 -12.414
O 112.405 23.506 -6.058
O 102.600 12.035 -9.646
O 70.063 18.084 -16.095
O 115.876 17.115 -25.648
O 95.623 19.341 -18.121
O 54.144 25.720 -5.001
O 101.445 23.816 -2.537
O 229.174 3.569 -14.190
O 59.843 16.418 -27.677
O 64.710 24.737 -30.996
O 221.058 22.471 -21.021
O 108.207 18.150 -12.273
O 120.481 15.343 -28.236
O 61.342 17.835 -17.838
O 109.577 18.994 -2.453
O 81.365 6.334 -5.139
O 100.461 29.810 -0.608
O 67.919 16.964 -17.919
O 82.351 27.934 -25.139
O 89.710 17.356 -28.646
O 53.445 11.695 -29.799
O 99.337 18.218 -14.411
O 68.470 7.577 -0.520
O 108.023 9.897 -1.045
O 106.211 6.816 -26.875
O 100.470 19.348 -10.803
O 79.662 2.135 -25.643
O 224.989 9.982 -11.447
O 98.695 10.453 -17.530
O 115.281 28.027 -11.009
O 54.977 23.591 -29.640
O 94.968 2.338 -16.699
O 114.927 18.636 -9.893
O 217.776 28.283 -13.974
O 79.416 30.068 -19.941
O 59.668 30.492 0.005
O 110.509 15.360 -19.861
O 111.359 7.939 -3.200
O 47.610 24.208 -27.997
O 221.614 6.152 -20.620
O 105.487 9.140 -2.388
O 54.731 5.651 -1.509
O 235.792 29.927 -19.429
O 61.185 10.200 -25.323
O 73.908 21.258 -26.851
O 222.669 13.064 -23.461
O 97.475 8.179 -16.282
O 88.443 14.227 -19.472
O 116.384 13.739 -3.588
O 112.293 14.065 -16.950
O 86.770 19.154 -15.341
O 78.074 12.502 -12.878
O 79.898 17.880 -21.774
O 67.724 5.300 -27.388
O 116.458 24.128 -22.221
O 228.068 5.512 -27.213
O 98.679 5.578 -27.411
O 86.576 6.350 -1.863
O 113.117 12.508 -2.292
O 54.749 6.956 -28.869
O 113.760 18.944 -26.799
O 53.189 1.661 -0.787
O 95.470 2.358 -2.367
O 67.828 8.162 -16.898
O 69.686 27.386 -11.689
O 71.153 14.689 -3.539
O 113.841 25.765 -4.731
O 227.716 4.769 -3.604
O 59.250 28.839 -3.394
O 108.108 24.331 -10.442
O 81.728 12.154 -11.944
O 117.884 27.765 -24.471
O 92.826 19.367 -24.055
O 58.748 29.327 -12.014
O 86.402 25.387 -25.866
O 65.397 12.795 -9.360
O 74.020 14.758 -18.219
O 120.161 30.506 -19.459
O 62.979 0.321 -7.295
O 67.695 25.343 -3.817
O 110.152 15.130 -0.123
O 100.494 6.098 -22.384
O 111.863 12.998 -23.462
O 77.611 25.521 -22.551
O 90.908 28.968 -6.403
O 231.345 0.781 -16.878
O 61.538 17.818 -15.218
O 81.250 14.812 -11.145
O 66.768 11.390 -5.714
O 225.561 5.812 -21.021
O 77.753 27.896 -18.932
O 84.907 8.396 -23.468
O 224.893 22.706 -18.858
O 67.066 21.190 -14.868
O 54.401 11.901 -24.459
O 116.716 24.293 -30.511
O 116.224 0.807 -15.467
O 61.843 18.585 -29.205
O 118.970 10.414 -12.028
O 224.182 2.204 -12.806
O 97.815 16.485 -22.962
O 98.784 7.358 -6.530
O 93.604 17.430 -19.358
O 49.941 5.584 -18.687
O 226.906 5.364 -14.702
O 79.554 20.040 -4.438
O 94.183 22.052 -24.087
O 217.722 14.919 -15.707
O 93.019 7.100 -9.229
O 52.314 17.621 -9.642
O 99.794 27.776 -28.706
O 118.149 7.594 -18.835
O 227.994 30.211 -6.619
O 79.202 28.604 -6.488
O 54.531 13.831 -15.053
O 48.355 6.681 -30.226
O 109.591 19.263 -7.566
O 62.087 24.608 -10.808
O 86.116 19.244 -19.709
O 85.304 25.591 -8.430
O 107.097 28.894 -28.162
O 91.315 3.123 -16.467
O 98.214 26.496 -24.677
O 113.985 18.869 -1.456
O 71.517 6.152 -21.169
O 93.450 16.943 -9.050
O 47.500 6.347 -1.844
O 119.789 17.805 -10.822
O 61.959 12.459 -0.789
O 53.406 19.566 -28.500
O 61.529 31.273 -9.541
O 48.610 28.562 -11.124
O 56.477 0.606 -3.377
O 83.012 3.009 -16.382
O 122.274 30.860 -17.698
O 49.426 24.350 -0.712
O 80.224 14.513 -3.586
O 109.387 10.282 -26.419
O 102.335 12.954 -5.917
O 62.717 15.934 -27.375
O 82.873 29.700 -14.947
O 231.688 1.347 -14.248
O 97.253 28.875 -1.141
O 86.008 25.633 -3.201
O 81.744 9.121 -11.826
O 99.708 19.333 -20.430
O 232.753 18.726 -20.228
O 77.342 25.718 -27.509
O 67.170 19.843 -25.189
O 109.323 25.826 -14.316
O 100.824 10.136 -15.788
O 121.649 1.650 -16.213
O 66.659 17.738 -28.582
O 88.526 0.103 -14.139
O 123.747 19.967 -14.572
O 97.583 18.172 -25.336
O 49.442 18.933 -27.843
O 86.972 9.479 -29.085
O 223.400 0.250 -6.552
O 113.215 15.228 -20.843
O 66.923 4.933 -17.053
O 108.504 6.555 -18.006
O 230.023 29.145 -8.256
O 114.936 29.871 -18.313
O 226.468 5.297 -10.935
O 85.215 1.577 -6.622
O 108.398 14.480 -9.309
O 96.506 2.288 -10.258
O 56.519 22.094 -26.442
O 93.757 4.644 -3.211
O 100.894 4.673 -4.382
O 219.716 6.666 -22.892
O 221.130 25.864 -16.087
O 224.268 31.432 -28.335
O 101.522 28.656 -21.443
O 118.130 30.616 -17.488
O 223.310 3.600 -29.312
O 223.697 9.830 -21.599
O 120.305 15.408 -8.938
O 59.751 14.812 -30.610
O 99.800 18.669 -8.224
O 115.044 3.754 -5.731
O 58.964 12.989 -8.396
O 50.373 7.351 -9.797
O 120.327 28.604 -4.715
O 102.931 16.062 -16.155
O 220.070 8.538 -7.402
O 53.930 17.203 -23.241
O 117.043 8.529 -8.151
O 221.934 12.737 -2.822
O 75.400 10.723 -27.402
O 78.303 24.734 -25.187
O 106.184 8.467 -10.589
O 116.370 28.838 -13.488
O 222.000 31.286 -4.257
O 224.803 25.975 -17.771
O 78.796 0.164 -27.658
O 120.742 0.612 -11.740
O 228.645 30.045 -13.699
O 95.516 6.117 -1.635
O 73.536 15.157 -26.819
O 91.732 25.806 -26.269
O 77.204 -0.085 -23.648
O 102.000 25.308 -6.708
O 74.781 5.101 -11.268
O 80.501 8.953 -2.374
O 91.826 15.123 -14.682
O 87.986 21.720 -19.989
O 101.120 9.111 -22.317
O 73.349 31.345 -17.575
O 49.950 27.229 -1.962
O 106.467 2.287 -9.409
O 90.291 19.187 -25.296
O 102.914 9.342 -27.345
O 89.924 24.591 -1.279
O 228.264 24.385 -23.469
O 69.545 10.117 -1.219
O 222.542 25.724 -5.841
O 218.183 0.512 -11.061
O 92.380 14.874 -20.286
O 230.316 21.428 -4.923
O 90.515 26.802 -13.081
O 97.804 12.611 -16.152
O 51.513 8.250 -17.869
O 114.718 8.357 -9.617
O 61.527 30.589 -21.683
O 66.632 16.853 -12.487
O 95.479 5.667 -8.838
O 102.769 4.336 -7.210
O 97.721 0.232 -7.128
O 83.347 14.181 -7.964
O 227.985 11.825 -0.284
O 51.267 6.482 -7.550
O 121.577 16.790 -24.776
O 82.706 19.218 -30.407
O 72.961 23.048 -19.194
O 47.267 30.746 -17.316
O 50.509 2.440 -5.000
O 65.204 7.097 -15.579
O 72.287 2.550 -10.938
O 115.337 26.124 -15.818
O 88.571 0.957 -2.787
O 115.627 26.065 -6.910
O 77.574 22.739 -11.272
O 112.176 20.919 -16.695
O 65.478 12.715 -24.694
O 89.548 10.736 -11.452
O 102.293 8.271 -30.758
O 47.477 1.416 -7.159
O 84.434 18.473 -28.173
O 227.098 24.990 -26.800
O 58.471 17.960 -10.376
O 232.322 4.319 -11.700
O 55.241 -0.033 -25.856
O 60.252 20.218 -20.203
O 231.336 18.759 -14.447
O 81.495 3.477 -5.027
O 109.850 20.669 -28.744
O 74.160 6.664 -8.959
O 46.719 1.728 -27.321
O 115.931 4.298 -0.809
O 87.997 4.022 -16.888
O 84.331 4.018 -30.630
O 54.078 0.724 -10.481
O 65.849 4.340 -14.609
O 228.542 8.724 -12.413
O 81.182 17.895 -6.761
O 221.585 14.402 -13.294
O 70.793 9.115 -7.025
O 221.663 28.541 -30.027
O 76.984 19.905 -3.294
O 86.471 22.453 -11.356
O 82.383 11.545 -8.633
O 103.892 0.862 -0.699
O 120.889 10.483 -7.110
O 52.868 1.240 -5.425
O 119.769 18.703 -3.322
O 93.522 4.633 -23.778
O 235.691 5.858 -28.974
O 81.379 28.182 -4.900
O 63.124 10.597 -12.663
O 46.513 25.205 -21.087
O 63.001 1.341 -31.161
O 112.567 0.154 -23.758
O 57.978 22.500 -6.094
O 235.941 16.961 -15.287
O 111.632 25.346 -26.938
O 80.992 15.511 -8.536
O 96.715 22.749 -23.156
O 81.100 29.345 -27.559
O 70.651 25.032 -2.666
O 55.788 16.529 -7.302
O 46.823 18.752 -26.439
O 95.224 2.563 -12.899
O 110.068 19.663 -26.374
O 232.232 4.796 -8.927
O 53.270 25.372 -18.077
O 118.004 7.491 -26.895
O 117.264 24.197 -8.620
O 227.505 15.369 -1.389
O 233.212 9.903 -21.189
O 229.986 27.528 -21.613
O 57.636 20.796 -13.071
O 234.635 2.623 -5.168
O 79.901 14.001 -20.630
O 102.629 7.923 -8.328
O 233.710 27.601 -9.686
O 94.755 11.908 -21.175
O 67.223 30.969 -23.437
O 82.097 5.002 -25.133
O 227.046 10.770 -9.431
O 57.643 11.881 -4.799
O 84.061 12.939 -1.293
O 83.183 7.858 -28.714
O 89.734 4.557 -21.737
O 219.222 12.745 -28.356
O 74.706 1.022 -29.700
O 222.868 8.912 -9.651
O 58.211 15.981 -21.417
O 99.589 3.719 -31.242
O 110.955 29.800 -27.525
O 219.249 5.568 -17.223
O 97.882 25.522 -19.309
O 232.720 19.930 -6.880
O 50.022 18.721 -5.560
O 119.230 0.988 -15.525
O 77.780 4.549 -14.635
O 225.919 22.921 -24.008
O 55.909 11.844 -19.373
O 106.433 14.386 -6.463
O 52.726 22.582 -18.043
O 75.952 8.707 -20.886
O 227.441 1.385 -14.018
O 71.633 20.122 -21.422
O 107.591 0.942 -30.265
O 70.221 11.499 -18.094
O 82.420 24.817 -0.931
O 95.425 9.000 -0.665
O 72.087 28.275 -1.820
O 122.852 21.530 -19.253
O 105.299 3.104 -25.966
O 99.733 28.582 -25.851
O 68.957 1.082 -0.423
O 111.503 4.991 -13.898
O 231.601 17.843 -24.157
O 119.081 19.705 -17.649
O 115.356 21.189 -27.761
O 220.978 29.238 -14.093
O 109.099 21.608 -22.309
O 221.144 6.792 -26.644
O 59.828 19.093 -0.322
O 110.304 15.765 -16.201
O 61.850 1.180 -14.509
O 224.788 1.785 -30.454
O 66.922 7.178 -12.128
O 234.445 11.352 -19.167
O 102.829 5.473 -14.048
O 69.272 22.698 -11.511
O 71.468 11.971 -21.850
O 115.235 28.560 -27.687
O 220.960 23.534 -23.559
O 109.453 15.442 -13.593
O 119.546 12.769 -22.023
O 227.228 14.780 -8.709
O 88.169 16.248 -12.119
O 70.378 22.336 -4.590
O 70.328 4.186 -28.993
O 46.895 12.164 -5.127
O 99.737 3.582 -12.510
O 101.971 24.851 -27.440
O 73.926 5.531 -31.097
O 86.382 3.010 -12.351
O 55.241 7.103 -26.186
O 65.045 19.208 -12.992
O 232.156 31.086 -26.781
O 85.607 17.076 -4.058
O 115.576 30.700 -24.465
O 73.614 19.536 -23.744
O 110.363 22.904 -16.165
O 69.699 8.399 -4.734
O 94.882 19.305 -8.794
O 112.500 13.849 -4.648
O 234.017 28.814 -14.788
O 51.709 26.941 -14.548
O 96.665 0.343 -21.429
O 77.869 16.633 -5.321
O 113.506 16.975 -12.452
O 63.122 7.416 -18.130
O 81.065 17.676 -13.793
O 66.090 8.486 -2.969
O 105.229 14.886 -31.111
O 95.222 28.361 -6.168
O 121.465 11.951 -18.590
O 223.490 13.486 -26.910
O 55.642 28.622 -25.413
O 85.380 19.698 -3.074
O 218.611 2.765 -18.306
O 91.176 10.906 -6.451
O 116.242 24.764 -12.332
O 234.064 17.304 -23.087
O 69.601 5.077 -0.077
O 108.269 10.165 -7.132
O 52.317 22.373 -30.741
O 119.099 19.900 -22.739
O 80.515 28.712 -13.299
O 57.582 14.436 -15.155
O 71.011 15.071 -27.640
O 76.819 27.900 -23.482
O 51.474 8.107 -25.624
O 91.148 3.254 -29.240
O 47.073 4.258 -26.348
O 227.626 8.083 -15.906
O 93.607 24.785 -16.290
O 102.190 22.276 -18.422
O 225.743 10.229 -4.310
O 116.855 22.685 -6.109
O 91.311 23.902 -10.665
O 79.257 12.519 -28.152
O 66.955 1.465 -12.398
O 80.385 20.545 -30.032
O 68.463 12.340 -31.110
O 59.371 30.512 -25.559
O 99.970 18.967 -16.975
O 74.981 23.030 -28.929
O 78.201 18.735 -29.328
O 235.139 10.100 -23.251
O 99.361 1.775 -8.932
O 67.511 25.128 -21.977
O 219.696 16.551 -12.680
O 75.263 9.981 -1.673
O 94.736 14.567 -13.548
O 104.593 13.673 -4.423
O 55.645 13.457 -30.476
O 96.797 3.130 -25.387
O 71.597 6.602 -7.781
O 235.492 0.099 -30.563
O 83.867 24.455 -28.030
O 221.458 20.083 -19.249
O 92.821 9.783 -13.635
O 235.625 3.296 -21.566
O 76.420 25.878 -6.793
O 235.269 25.446 -25.639
O 111.627 -0.004 -29.628
O 63.073 8.505 -6.671
O 88.685 9.801 -22.040
O 117.987 30.355 -5.347
O 105.600 11.447 -29.122
O 62.919 13.918 -12.289
O 83.692 15.637 -0.597
O 232.966 13.103 -15.903
O 62.496 18.791 -8.802
O 229.471 22.701 -25.348
O 108.515 29.018 -7.417
O 53.708 14.777 -6.062
O 78.321 25.319 -17.710
O 229.651 25.641 -4.330
O 83.013 0.250 -7.919
O 121.044 23.282 -15.227
O 95.785 15.613 -29.469
O 51.928 10.865 -12.161
O 53.264 22.880 -22.864
O 57.543 22.065 -15.962
O 85.150 12.705 -20.240
O 72.985 0.699 -0.281
O 118.117 0.769 -10.690
O 105.473 17.250 -1.209
O 88.561 27.052 -0.554
O 52.980 5.757 -10.094
O 105.287 8.863 -7.956
O 67.363 11.582 -10.975
O 230.857 12.597 -11.491
O 233.674 17.343 -8.523
O 225.178 0.432 -18.871
O 94.248 6.627 -28.132
O 46.839 25.974 -0.753
O 117.877 15.558 -2.131
O 97.727 6.591 -24.801
O 70.075 20.235 -2.182
O 107.407 15.778 -3.810
O 52.454 7.330 -20.117
O 226.897 15.617 -4.868
O 97.603 17.488 -20.283
O 104.496 6.961 -21.145
O 113.860 20.567 -14.394
O 234.136 20.018 -17.976
O 91.063 24.355 -15.489
O 105.435 4.112 -16.259
O 74.258 14.014 -13.718
O 98.006 10.215 -23.562
O 56.499 17.808 -23.034
O 234.550 1.102 -28.082
O 229.180 1.058 -5.442
O 57.537 13.189 -21.084
O 55.874 19.386 -20.823
O 225.799 21.193 -9.106
O 81.800 11.886 -22.587
O 116.013 28.831 -0.961
O 234.527 8.706 -6.916
O 80.895 25.336 -25.643
O 106.388 19.792 -30.632
O 49.861 28.727 -8.182
O 219.281 0.348 -25.957
O 95.160 9.656 -16.228
O 69.788 15.892 -13.519
O 71.603 24.840 -27.904
O 107.782 29.300 -30.857
O 99.119 30.065 -19.960
O 118.589 10.068 -20.153
O 85.627 14.852 -9.220
O 79.961 25.505 -21.009
O 114.610 22.611 -25.127
O 96.940 7.149 -13.837
O 85.892 25.963 -16.946
O 78.270 19.945 -21.848
O 120.623 9.252 -10.092
O 223.746 28.754 -13.845
O 68.798 24.654 -30.984
O 233.663 7.198 -14.280
O 59.623 12.259 -28.925
O 96.468 8.333 -18.917
O 77.072 5.557 -2.314
O 82.625 8.216 -24.970
O 56.807 27.335 -18.138
O 75.586 11.635 -11.474
O 220.132 26.825 -13.698
O 223.676 8.291 -1.349
O 56.624 14.803 -25.287
O 226.939 28.703 -0.143
O 76.319 1.710 -8.045
O 231.548 17.398 -27.483
O 64.760 5.454 -12.055
O 58.895 16.514 -18.734
O 88.942 14.408 -29.398
O 64.451 27.883 -28.791
O 232.957 19.221 -3.047
O 101.202 10.554 -25.516
O 104.004 25.363 -16.018
O 102.713 14.748 -10.053
O 98.554 31.049 -4.507
O 59.144 27.880 -26.069
O 93.751 21.659 -11.599
O 117.174 14.951 -11.508
O 62.904 26.975 -12.251
O 56.632 29.295 -22.821
O 63.428 14.896 -9.792
O 71.166 9.145 -18.833
O 46.636 23.364 -2.208
O 82.845 2.587 -29.035
O 94.420 19.840 -0.705
O 231.763 15.956 -19.996
O 120.120 22.258 -20.127
O 231.805 22.017 -27.177
O 65.097 25.650 -24.519
O 106.169 2.483 -18.391
O 222.159 25.567 -20.610
O 66.845 28.002 -12.069
O 229.028 16.250 -19.912
O 117.870 0.993 -3.152
O 91.892 1.943 -13.983
O 111.194 1.196 -15.293
O 87.609 1.449 -17.607
O 93.106 29.933 -5.237
O 68.975 8.248 -24.134
O 48.068 6.403 -12.276
O 231.188 21.873 -9.809
O 51.352 2.658 -23.592
O 54.148 15.432 -21.133
O 97.183 28.196 -10.278
O 76.487 7.204 -14.768
O 227.121 17.726 -15.503
O 90.234 4.100 -13.320
O 72.152 3.228 -31.207
O 64.492 6.569 -1.505
O 71.105 13.637 -10.123
O 91.662 24.831 -19.756
O 104.030 23.125 -27.125
O 119.190 23.857 -27.170
O 58.360 6.580 -16.501
O 101.352 11.524 -28.769
O 65.381 21.095 -29.288
O 47.525 21.002 -29.504
O 79.678 10.368 -10.472
O 88.538 19.770 -28.269
O 80.351 16.312 -19.176
O 51.891 24.192 -14.498
O 96.438 5.146 -15.670
O 87.996 25.679 -21.235
O 223.870 16.111 -28.249
O 56.459 9.334 -9.189
O 232.289 13.432 -20.894
O 105.867 17.625 -16.870
O 87.277 27.124 -11.542
O 236.120 18.348 -19.381
O 51.598 24.980 -11.568
O 111.512 27.440 -28.590
O 113.330 29.378 -25.705
O 222.519 18.654 -13.786
O 73.904 9.276 -9.265
O 218.949 8.285 -28.257
O 55.381 27.972 -10.205
O 236.084 21.782 -13.314
O 72.329 2.388 -19.190
O 79.421 3.718 -11.391
O 90.192 16.609 -21.935
O 114.153 26.066 -28.239
O 71.326 6.920 -14.873
O 102.256 7.652 -11.185
O 98.251 17.710 -31.302
O 72.631 7.872 -27.579
O 76.519 6.919 -11.821
O 80.597 3.565 -27.792
O 114.076 26.278 -13.452
O 112.679 7.526 -11.867
O 88.064 26.325 -14.068
O 78.212 14.666 -30.069
O 67.396 2.251 -16.402
O 63.982 7.420 -24.196
O 105.536 1.209 -20.703
O 72.496 5.812 -12.361
O 94.069 17.861 -28.406
O 118.457 24.489 -20.281
O 101.677 7.033 -5.770
O 218.978 30.810 -15.315
O 227.649 21.032 -3.800
O 58.663 9.356 -16.970
O 107.504 17.494 -29.938
O 51.675 5.714 -13.601
O 100.676 6.730 -16.084
O 222.564 6.463 -18.210
O 87.144 17.532 -0.242
O 116.645 22.587 -14.001
O 83.189 6.902 0.011
O 98.264 25.875 -3.643
O 67.350 14.627 -15.779
O 80.197 2.208 -2.915
O 85.973 25.238 -19.617
O 84.691 8.489 -1.695
O 113.265 23.378 -27.624
O 76.224 15.036 -1.802
O 54.029 20.852 -1.116
O 46.928 12.501 -2.165
O 62.918 26.905 -30.876
O 55.714 4.924 -30.465
O 105.261 27.713 -19.326
O 102.218 31.019 -20.440
O 90.669 29.225 -23.669
O 232.645 28.217 -27.439
O 235.688 30.081 -23.258
O 48.633 13.498 -18.876
O 117.924 30.011 -25.855
O 78.700 23.664 -2.313
O 98.223 19.996 -12.406
O 226.338 14.803 -20.309
O 114.982 10.698 -26.598
O 117.625 23.850 -3.318
O 79.538 12.717 -8.708
O 229.410 24.462 -31.128
O 221.865 30.257 -23.464
O 116.024 0.115 -8.030
O 82.182 21.382 -19.436
O 71.211 0.705 -3.960
O 224.511 30.638 -24.404
O 70.568 2.412 -14.839
O 222.044 27.856 -24.840
O 95.582 20.174 -3.639
O 50.688 21.715 -28.574
O 87.663 2.939 -6.404
O 55.882 8.747 -17.909
O 47.319 14.333 -7.099
O 68.009 3.862 -3.664
O 224.355 11.782 -19.847
O 67.644 16.997 -1.778
O 62.833 12.294 -8.381
O 104.629 19.599 -12.246
O 82.109 1.152 -11.593
O 62.272 2.835 -19.195
O 46.345 27.272 -3.415
O 112.573 21.552 -29.621
O 88.497 26.591 -4.677
O 225.129 21.966 -4.268
O 100.239 24.430 -11.416
O 77.734 4.549 -27.961
O 55.084 3.067 -3.078
O 50.178 24.690 -29.396
O 96.852 16.187 -2.088
O 107.200 11.985 -9.135
O 96.478 31.004 -10.512
O 114.041 5.795 -29.773
O 109.150 5.568 -29.829
O 220.208 29.118 -19.989
O 105.650 23.847 -5.488
O 51.989 21.247 -6.258
O 66.912 28.673 -6.864
O 116.209 10.530 -21.369
O 59.535 8.775 -4.028
O 226.212 5.422 -8.081
O 110.991 16.656 -9.751
O 236.343 27.715 -10.812
O 49.697 8.866 -15.072
O 69.139 28.111 -29.105
O 94.904 27.400 -31.449
O 119.998 5.993 -23.294
O 107.619 17.297 -22.009
O 219.350 1.052 -28.907
O 97.021 11.851 -4.607
O 46.277 9.546 -2.053
O 110.794 3.019 -26.690
O 112.764 10.375 -15.419
O 235.006 15.962 -3.351
O 106.550 17.728 -5.552
O 82.770 14.782 -22.806
O 111.911 5.457 -25.492
O 58.946 9.448 -30.177
O 120.548 27.368 -16.754
O 107.979 25.717 -28.015
O 224.867 27.414 -25.812
O 50.779 19.343 -2.688
O 57.903 19.342 -18.640
O 49.275 25.055 -22.887
O 83.816 9.068 -13.838
O 115.848 6.082 -25.389
O 52.623 18.846 -18.833
O 93.320 20.810 -4.803
O 95.884 13.966 -17.919
O 105.883 28.674 -23.788
O 232.368 20.013 -12.204
O 68.947 27.658 -8.784
O 85.662 10.971 -0.138
O 88.057 7.149 -21.352
O 59.661 1.711 -10.475
O 74.007 7.456 -2.454
O 229.631 5.681 -5.458
O 114.420 6.160 -4.355
O 84.404 12.487 -5.831
O 231.819 21.473 -24.019
O 74.769 27.189 -27.568
O 98.305 3.051 -28.266
O 101.909 14.792 -27.824
O 232.523 9.135 -4.495
O 234.692 12.571 -10.907
O 231.026 18.987 -4.882
O 82.836 31.064 -29.183
O 109.575 9.320 -4.493
O 97.612 14.387 -24.736
O 46.784 18.524 -23.642
O 90.224 29.850 -28.130
O 64.036 27.040 -9.404
O 117.507 3.204 -4.718
O 46.467 10.450 -28.864
O 107.536 4.184 -22.602
O 49.799 6.153 -24.250
O 52.844 30.541 -3.876
O 61.209 22.704 -12.813
O 48.801 15.279 -0.519
O 78.695 16.672 -25.336
O 89.892 3.490 -8.739
O 71.551 19.992 -10.295
O 233.002 24.068 -2.044
O 223.194 0.078 -0.631
O 230.295 5.271 -22.853
O 51.081 3.606 -7.583
O 49.347 16.006 -27.439
O 65.374 17.078 -23.773
O 110.657 6.051 -16.378
O 77.898 10.562 -21.792
O 230.509 16.920 -12.599
O 78.737 1.269 -19.191
O 109.385 17.866 -19.586
O 81.768 8.054 -18.784
O 95.493 11.594 -2.279
O 227.369 7.895 -8.397
O 62.746 24.984 -25.808
O 114.339 15.458 -3.356
O 66.279 7.215 -30.057
O 48.864 23.259 -8.630
O 229.694 0.772 -19.602
O 117.071 6.191 -29.340
O 87.527 12.638 -15.592
O 118.065 26.246 -28.337
O 82.547 10.428 -20.197
O 60.538 25.797 -30.105
O 113.317 21.955 -19.921
O 103.796 9.586 -22.151
O 61.573 8.950 -14.123
O 221.708 6.319 -3.204
O 80.563 6.884 -23.823
O 76.127 18.359 -23.262
O 101.263 31.253 -4.395
O 60.789 23.210 -19.348
O 117.147 26.838 -30.938
O 93.969 27.216 -11.082
O 52.207 18.267 -15.754
O 222.900 18.844 -30.442
O 66.765 30.550 -4.836
O 48.522 27.529 -25.614
O 86.158 17.113 -10.412
O 230.699 19.801 -1.313
O 95.820 2.306 -7.469
O 69.141 8.411 -13.484
O 82.160 21.658 -13.696
O 74.680 2.256 -17.584
O 232.746 28.990 -11.988
O 108.674 30.945 -26.560
O 115.771 7.421 -13.096
O 117.013 8.188 -2.690
O 95.917 19.168 -21.521
O 224.263 26.426 -12.070
O 222.096 10.507 -12.534
O 52.535 14.939 -8.509
O 94.866 4.383 -31.036
O 114.591 12.192 -23.428
O 106.561 31.422 -13.169
O 107.066 20.619 -18.320
O 65.107 14.209 -19.352
O 119.446 18.933 -20.259
O 99.445 15.313 -18.133
O 54.762 8.467 -14.982
O 92.931 11.115 -23.936
O 73.669 7.344 -22.642
O 99.873 23.730 -29.247
O 49.398 23.177 -11.598
O 92.972 14.319 -26.427
O 90.459 27.556 -17.765
O 71.500 5.449 -27.001
O 49.815 15.144 -22.925
O 121.427 29.544 -15.457
O 73.591 22.115 -15.200
O 87.398 31.366 -7.045
O 61.556 10.240 -5.200
O 121.504 4.686 -3.608
O 50.727 23.982 -6.799
O 49.182 15.950 -16.194
O 60.328 28.701 -9.839
O 90.016 27.595 -20.863
O 82.136 2.185 -24.525
O 224.544 11.927 -2.103
O 91.003 7.935 -15.953
O 101.710 26.862 -11.788
O 85.004 29.823 -27.438
O 50.185 14.607 -4.422
O 85.823 16.994 -25.804
O 95.523 26.043 -20.720
O 64.305 18.719 -15.713
O 56.937 0.668 -22.738
O 53.794 15.378 -25.439
O 91.494 1.929 -26.286
O 49.128 19.910 -13.509
O 89.179 16.897 -4.463
O 120.255 3.429 -5.714
O 222.121 10.672 -7.011
O 109.644 22.225 -4.759
O 102.762 21.761 -4.588
O 50.263 3.708 -12.316
O 65.435 29.854 -10.618
O 63.808 21.271 -15.589
O 222.906 0.223 -11.312
O 118.457 1.753 -24.721
O 85.489 15.803 -19.910
O 97.633 16.969 -6.858
O 54.008 3.003 -26.139
O 70.666 27.412 -19.815
O 54.627 13.927 -1.650
O 62.032 25.815 -22.902
O 59.946 12.546 -19.683
O 57.135 0.750 -11.063
O 100.601 14.872 -4.147
O 104.840 13.701 -14.706
O 116.107 20.951 -17.801
O 77.660 27.784 -4.233
O 228.156 0.314 -22.254
O 70.889 0.253 -20.989
O 105.127 25.692 -28.070
O 83.023 5.127 -14.566
O 83.973 5.122 -22.940
O 47.198 24.361 -24.962
O 113.617 1.391 -4.922
O 106.080 26.139 -9.914
O 110.316 10.819 -22.365
O 96.274 25.485 -23.243
O 235.601 23.276 -27.819
O 84.263 20.394 -24.680
O 236.336 21.477 -16.339
O 59.437 22.960 -21.838
O 231.285 15.226 -14.730
O 111.161 17.297 -24.404
O 75.204 11.989 -7.233
O 222.675 8.040 -28.425
O 114.543 8.656 -1.584
O 75.826 24.635 -18.193
O 105.824 10.017 -14.916
O 223.454 20.196 -2.871
O 220.523 3.719 -29.244
O 67.622 15.416 -20.708
O 102.404 27.518 -3.186
O 87.835 19.223 -3.979
O 236.757 3.230 -13.019
O 51.089 12.450 -31.189
O 88.080 19.330 -21.834
O 227.913 10.808 -14.949
O 118.653 4.618 -9.496
O 48.187 2.254 -14.727
O 220.800 21.010 -27.757
O 222.661 19.029 -7.314
O 97.037 23.342 -3.376
O 217.771 30.899 -21.101
O 56.833 16.883 -3.834
O 117.693 5.289 -2.769
O 89.181 24.287 -19.121
O 46.519 17.933 -2.959
O 233.531 18.021 -16.087
O 65.466 30.035 -16.059
O 116.109 3.670 -29.032
O 235.372 16.091 -21.125
O 234.305 4.147 -16.525
O 115.577 11.947 -15.406
O 227.010 8.489 -2.829
O 230.977 12.282 -5.540
O 63.131 3.392 -13.157
O 89.059 20.780 -6.019
O 227.887 10.444 -20.319
O 51.755 3.818 -21.074
O 57.503 28.774 -15.873
O 70.704 24.784 -12.645
O 55.789 20.205 -24.492
O 120.792 22.850 -9.117
O 120.868 12.406 -16.113
O 113.316 2.827 -27.600
O 83.634 24.150 -3.477
O 49.825 5.429 -3.289
O 99.683 24.913 -0.440
O 61.205 17.742 -11.258
O 221.573 5.166 -13.935
O 117.623 20.548 -29.250
O 59.703 4.649 -18.348
O 233.419 12.170 -24.781
O 63.065 31.289 -16.616
O 69.206 18.923 -20.059
O 104.823 27.243 -1.727
O 79.379 26.799 -11.815
O 118.565 6.763 -13.551
O 225.644 30.589 -12.448
O 216.830 1.941 -20.325
O 57.039 23.148 -0.398
O 65.217 0.253 -2.480
O 112.965 14.212 -7.423
O 118.707 23.415 -11.225
O 101.302 20.440 -6.626
O 226.287 21.505 -30.182
O 57.300 17.560 -25.686
O 48.415 17.758 -18.985
O 59.559 28.616 -20.984
O 83.930 9.755 -6.793
O 118.541 8.098 -16.167
O 236.097 30.078 -26.662
O 112.950 1.761 -2.271
O 83.893 9.959 -10.447
O 61.938 13.407 -26.872
O 230.256 3.390 -7.740
O 232.004 10.039 -14.959
O 56.766 19.572 -16.215
O 92.073 30.807 -12.877
O 94.719 30.433 -8.595
O 88.400 19.322 -12.631
O 108.913 2.254 -10.639
O 220.017 11.755 -11.229
O 117.305 17.178 -20.204
O 90.032 20.290 -2.483
O 65.916 12.814 -17.324
O 231.751 24.694 -15.066
O 55.976 15.213 -28.130
O 236.435 27.802 -24.846
O 59.250 18.822 -22.506
O 62.195 3.735 -2.555
O 92.163 21.334 -13.649
O 53.760 18.318 -12.113
O 236.579 9.684 -5.314
O 232.923 7.137 -21.407
O 106.879 23.838 -31.286
O 229.922 4.399 -19.894
O 228.013 11.672 -12.114
O 81.620 13.660 -14.594
O 92.552 14.820 -4.123
O 222.456 2.636 -26.678
O 64.324 3.878 -26.090
O 118.259 11.454 -16.317
O 228.867 12.457 -8.169
O 79.126 14.932 -15.523
O 234.436 17.097 -31.443
O 53.633 12.619 -9.406
O 58.254 4.038 -30.886
O 48.446 27.054 -5.272
O 218.543 9.184 -4.871
O 73.706 8.002 -19.391
O 113.856 5.895 -1.622
O 86.007 4.076 -8.434
O 53.442 16.639 -27.829
O 50.881 25.260 -25.710
O 57.359 2.816 -15.217
O 224.770 10.068 -16.346
O 60.214 6.460 -14.419
O 85.981 28.568 -2.726
O 230.654 30.131 -24.633
O 87.471 1.443 -24.588
O 66.669 7.328 -22.994
O 227.404 28.737 -17.456
O 120.402 19.654 -15.071
O 49.531 17.461 -8.948
O 219.845 30.691 -8.766
O 61.976 27.302 -4.147
O 235.549 22.667 -4.438
O 222.009 12.954 -30.089
O 99.519 1.936 -16.201
O 53.819 24.468 -0.589
O 116.695 4.534 -12.634
O 230.469 23.980 -11.660
O 55.701 16.314 -19.063
O 110.231 25.365 -7.812
O 110.516 27.962 -16.079
O 47.163 24.388 -12.656
O 55.094 8.057 0.010
O 231.414 2.283 -25.855
O 122.274 14.696 -26.219
O 85.173 1.410 -16.761
O 56.397 18.969 -27.681
O 116.116 16.327 -9.262
O 55.739 18.006 -31.044
O 55.845 23.381 -22.163
O 228.685 20.518 -10.210
O 59.332 13.663 -5.897
O 98.499 31.315 -1.503
O 74.747 17.024 -16.834
O 89.971 23.797 -29.301
O 101.766 3.054 -18.414
O 111.809 0.651 -7.243
O 98.110 26.720 -16.352
O 98.341 9.366 -26.107
O 48.994 0.217 -4.219
O 80.292 2.107 -16.877
O 119.970 3.416 -30.948
O 121.610 5.202 -10.290
O 61.990 12.912 -5.653
O 81.790 6.039 -8.085
O 58.285 12.541 -31.216
O 99.755 8.626 -2.408
O 77.299 11.070 -4.905
O 120.946 21.636 -30.984
O 70.672 9.033 -29.436
O 230.973 5.308 -2.135
O 83.290 10.572 -28.769
O 90.296 12.968 -9.403
O 221.175 8.921 -20.748
O 53.299 12.416 -21.585
O 61.537 3.247 -26.614
O 102.170 4.560 -11.626
O 105.895 21.417 -4.059
O 64.293 17.433 -29.884
O 72.026 14.089 -5.984
O 103.532 22.234 -1.893
O 57.357 21.096 -22.222
O 116.092 6.194 -22.668
O 100.635 15.198 -25.021
O 51.607 14.562 -16.788
O 232.727 27.995 -1.998
O 61.004 26.626 -27.706
O 69.109 31.314 -7.802
O 108.111 8.359 -22.671
O 98.789 15.240 -27.129
O 119.924 27.100 -9.728
O 218.739 31.378 -18.107
O 98.971 14.933 -20.879
O 54.410 2.589 -29.830
O 57.703 30.034 -28.200
O 227.799 21.034 -12.804
O 85.904 6.487 -6.392
O 235.462 19.712 -5.609
O 75.233 10.747 -18.528
O 114.760 30.183 -5.829
O 100.761 9.669 -9.695
O 72.595 17.408 -20.085
O 50.158 12.150 -22.194
O 60.890 4.010 -11.110
O 65.596 25.125 -28.335
O 102.723 3.558 -2.450
O 51.032 27.601 -10.460
O 74.134 21.181 -1.465
O 73.717 16.634 -8.524
O 72.869 22.306 -3.547
O 120.315 14.047 -19.727
O 98.698 14.367 -1.438
O 91.225 19.295 -21.838
O 66.487 25.840 -10.220
O 71.139 2.204 -23.081
O 89.220 12.884 -0.665
O 48.807 9.013 -3.210
O 106.760 26.593 -13.340
O 107.282 15.721 -11.566
O 104.679 0.831 -4.881
O 54.907 12.803 -27.122
O 94.094 30.111 -20.863
O 104.741 16.216 -20.352
O 99.581 7.907 -11.481
O 93.034 1.107 -6.632
O 109.949 3.854 -2.258
O 49.050 25.059 -18.018
O 115.059 10.111 -5.691
O 74.540 14.645 -6.713
O 229.162 17.952 -10.415
O 93.439 24.349 -3.857
O 95.526 20.046 -25.808
O 55.075 10.551 -1.219
O 101.931 23.431 -24.636
O 232.459 16.279 -1.801
O 71.265 8.934 -11.437
O 47.592 4.200 -10.920
O 48.047 30.949 -0.034
O 61.012 29.772 -5.350
O 113.171 20.061 -3.759
O 78.426 8.444 -5.038
O 49.370 27.646 -17.894
O 69.439 5.632 -24.908
O 226.607 14.311 -30.331
O 74.645 13.346 -25.149
O 72.406 29.268 -23.821
O 65.152 24.494 -18.943
O 102.026 8.407 -17.990
O 77.139 20.300 -12.016
O 98.338 28.720 -7.192
O 83.117 16.628 -5.028
O 220.420 31.183 -12.352
O 114.296 17.820 -14.855
O 230.109 28.389 -11.905
O 47.531 27.242 -7.898
O 110.768 11.618 -11.701
O 103.552 2.888 -22.755
O 119.095 22.822 -23.128
O 95.057 28.527 -28.680
O 221.872 14.446 -7.172
O 122.121 17.676 -13.753
O 85.513 5.686 -12.630
O 68.621 5.397 -10.623
O 74.238 22.755 -12.470
O 120.137 12.710 -8.967
O 87.435 13.783 -13.055
O 100.791 10.563 -19.736
O 111.437 21.672 -2.439
O 56.463 6.327 -19.253
O 60.043 2.679 -16.126
O 72.548 8.971 -16.463
O 86.737 20.333 -25.950
O 73.950 20.035 -11.661
O 53.528 18.503 -7.160
O 86.103 22.829 -26.831
O 228.673 18.500 -29.431
O 60.745 10.364 -18.430
O 231.537 16.776 -17.420
O 75.945 15.254 -12.049
O 59.090 21.352 -30.170
O 56.448 4.848 -9.590
O 53.440 30.964 -22.716
O 93.758 6.144 -6.015
O 119.130 11.544 -28.658
O 97.127 2.843 -4.857
O 73.024 24.682 -23.011
O 226.239 1.398 -16.421
O 107.841 26.811 -18.375
O 228.598 2.237 -9.986
O 229.789 20.765 -28.655
O 73.814 23.242 -8.897
O 110.610 16.498 -3.952
O 50.073 13.941 -29.049
O 121.172 18.893 -8.072
O 60.193 29.053 -15.777
O 61.579 21.357 -5.058
O 61.898 28.627 -1.499
O 76.446 2.645 -31.306
O 227.787 3.532 -31.298
O 99.936 0.746 -13.305
O 101.014 14.251 -15.758
O 49.819 -0.032 -23.609
O 68.511 31.229 -27.244
O 223.202 21.895 -29.067
O 101.117 29.175 -18.434
O 90.745 17.420 -19.131
O 105.191 12.788 -21.048
O 68.694 22.690 -26.681
O 89.156 6.116 -2.970
O 230.518 23.446 -3.013
O 79.550 26.071 -3.150
O 116.217 27.646 -19.489
O 89.017 11.129 -29.601
O 72.746 29.459 -5.620
O 86.381 16.408 -6.941
O 53.578 9.483 -10.468
O 62.786 28.170 -14.747
O 121.562 3.507 -18.437
O 235.022 14.832 -16.732
O 235.363 16.431 -12.744
O 57.953 9.168 -25.709
O 228.573 26.520 -1.859
O 233.730 19.950 -25.478
O 229.865 25.323 -7.197
O 112.422 30.978 -21.253
O 81.652 27.840 -21.645
O 121.054 7.065 -16.616
O 119.468 3.402 -20.204
O 104.408 3.818 -30.040
O 46.501 28.718 -30.266
O 67.151 4.220 -23.580
O 105.011 0.091 -29.572
O 60.641 18.274 -6.569
O 97.604 2.875 -14.632
O 116.862 8.737 -23.392
O 99.172 21.857 -24.745
O 100.134 19.303 -25.735
O 70.158 1.307 -29.111
O 110.573 8.528 -23.891
O 224.700 1.678 -25.493
O 71.427 20.721 -7.030
O 104.666 13.973 -28.091
O 61.263 21.892 -16.291
O 51.152 9.097 -21.992
O 232.930 13.219 -2.376
O 221.708 17.192 -16.079
O 75.352 28.263 -15.385
O 87.111 23.752 -29.038
O 105.146 15.145 -8.888
O 98.515 27.047 -12.581
O 118.697 6.223 -5.396
O 61.235 31.343 -29.395
O 83.057 3.571 -11.898
O 234.477 1.229 -14.386
O 117.648 14.765 -21.717
O 79.704 23.177 -16.229
O 112.384 19.340 -10.029
O 67.487 23.123 -29.137
O 231.684 8.417 -27.081
O 55.445 25.042 -16.209
O 230.277 27.529 -24.358
O 70.215 20.111 -12.867
O 64.829 15.088 -25.713
O 114.631 22.168 -4.636
O 47.897 3.699 -19.594
O 235.197 25.608 -7.956
O 91.172 19.115 -6.471
O 104.506 7.802 -28.931
O 89.006 9.766 -1.403
O 115.291 5.570 -9.919
O 74.835 27.670 -20.117
O 218.713 30.276 -23.713
O 225.913 28.522 -19.796
O 222.915 2.968 -15.415
O 98.103 23.120 -20.811
O 234.548 23.629 -31.038
O 66.520 30.194 -18.596
O 54.601 9.640 -5.870
O 88.724 23.477 -14.377
O 62.022 16.177 -21.675
O 72.751 12.243 -18.046
O 58.828 6.469 -20.524
O 236.312 1.419 -16.379
O 97.860 9.851 -20.464
O 91.669 12.204 -12.773
O 47.722 7.198 -9.434
O 228.790 30.949 -16.382
O 109.460 17.381 -27.774
O 77.933 30.964 -13.147
O 64.036 15.967 -6.148
O 86.166 17.328 -17.670
O 88.519 4.344 -24.328
O 222.217 13.341 -20.525
O 118.154 26.524 -13.792
O 112.099 14.848 -29.657
O 66.991 15.279 -27.383
O 68.344 19.226 -0.327
O 109.132 27.085 -30.129
O 121.133 21.718 -25.151
O 119.235 25.456 -1.469
O 235.369 0.518 -6.855
O 227.660 17.263 -23.033
O 118.563 30.373 -14.132
O 115.440 11.876 -18.204
O 117.269 12.951 -6.144
O 65.761 14.458 -29.777
O 101.302 13.447 -1.834
O 47.900 6.271 -15.168
O 46.131 27.970 -13.884
O 88.488 29.919 -20.560
O 120.718 14.915 -14.389
O 96.640 20.015 -14.559
O 86.776 28.878 -5.664
O 226.765 8.333 -18.498
O 224.841 9.390 -7.945
O 89.087 15.798 -7.213
O 75.385 7.801 -27.457
O 58.321 21.675 -10.607
O 77.235 14.027 -19.297
O 56.302 21.169 -4.108
O 85.962 4.759 -15.431
O 80.462 26.734 -0.505
O 116.723 1.655 -26.994
O 223.939 22.581 -13.046
O 71.682 13.789 -12.778
O 91.783 14.883 -28.790
O 46.792 16.873 -10.435
O 53.090 30.131 -0.986
O 234.114 4.664 -6.814
O 84.007 1.983 -26.336
O 108.625 28.368 -3.283
O 80.100 11.660 -24.923
O 81.940 3.176 -8.847
O 63.966 21.361 -9.531
O 69.712 13.344 -20.176
O 232.510 28.231 -7.180
O 63.211 5.750 -6.702
O 64.752 17.757 -1.208
O 76.236 0.036 -26.385
O 64.330 24.191 -8.367
O 55.378 1.379 -7.053
O 104.323 3.805 -4.656
O 98.917 19.788 -1.292
O 119.194 15.232 -24.504
O 235.567 21.062 -20.384
O 115.887 6.256 -19.620
O 103.719 12.136 -1.728
O 89.718 5.413 -15.553
O 57.047 27.286 -6.314
O 62.330 22.423 -26.764
O 226.971 12.888 -23.561
O 64.870 11.426 -15.222
O 64.688 2.173 -16.527
O 222.990 15.953 -19.546
O 84.283 20.834 -7.516
O 108.723 12.938 -0.169
O 48.143 11.260 -16.316
O 114.875 23.936 -2.670
O 235.672 14.576 -8.967
O 79.703 17.159 -3.026
O 84.181 28.228 -0.484
O 65.443 14.467 -13.530
O 111.489 18.340 -15.779
O 232.223 8.096 -31.103
O 84.349 12.137 -12.780
O 235.392 16.805 -25.562
O 88.137 0.221 -9.686
O 81.556 24.294 -13.847
O 88.886 5.954 -29.119
O 83.940 14.706 -15.681
O 233.074 24.911 -21.691
O 225.498 27.487 -3.775
O 234.769 3.944 -27.323
O 71.616 21.869 -28.087
O 103.860 5.210 -27.191
O 54.156 16.298 -16.520
O 80.086 26.979 -28.660
O 111.961 3.927 -0.344
O 225.025 2.033 -5.021
O 99.172 31.067 -10.731
O 221.496 27.493 -27.474
O 226.635 28.067 -13.181
O 115.159 17.224 -22.734
O 91.043 5.639 -11.277
O 93.084 27.465 -16.781
O 112.924 11.387 -7.107
O 226.216 10.298 -22.942
O 234.281 7.204 -9.355
O 107.479 19.316 -9.625
O 78.321 26.808 -15.370
O 113.571 24.549 -10.384
O 71.305 15.470 -18.883
O 95.087 26.657 -3.060
O 73.414 4.331 -20.753
O 89.087 2.034 -12.075
O 70.002 11.120 -10.179
O 235.091 12.195 -14.112
O 83.953 30.781 -12.723
O 114.257 1.588 -25.439
O 220.289 9.583 -26.130
O 53.721 7.469 -12.325
O 105.039 10.577 -26.186
O 224.257 24.606 -4.044
O 56.656 26.429 -26.519
O 235.274 9.562 -14.211
O 234.351 23.111 -7.105
O 120.995 25.038 -11.212
O 81.045 6.714 -12.924
O 106.760 5.651 -4.383
O 105.125 24.713 -20.017
O 61.655 0.817 -4.498
O 98.534 3.802 -2.727
O 116.688 9.650 -28.668
O 82.505 17.566 -2.374
O 89.663 19.780 -19.336
O 236.714 14.855 -1.172
O 224.390 4.816 -4.074
O 92.492 25.964 -7.947
O 88.080 7.428 -12.406
O 107.532 15.559 -17.135
O 70.631 22.769 -0.983
O 93.230 12.423 -18.788
O 96.766 26.473 -8.046
O 63.651 27.726 -17.414
O 92.571 21.042 -29.877
O 64.618 19.189 -22.366
O 227.465 29.410 -4.002
O 99.442 5.946 -13.665
O 96.365 14.325 -20.582
O 229.932 16.342 -8.273
O 224.765 26.343 -20.734
O 233.607 3.521 -1.418
O 95.871 15.979 -15.782
O 64.539 14.771 -22.144
O 56.399 12.099 -8.355
O 89.111 0.111 -22.900
O 116.397 7.570 -5.757
O 121.737 3.449 -14.075
O 114.126 2.210 -8.283
O 234.658 26.370 -0.115
O 227.639 8.220 -24.002
O 226.028 0.269 -3.198
O 222.552 14.858 -4.357
O 52.443 0.388 -20.130
O 46.926 3.848 -30.910
O 74.297 12.801 -21.066
O 59.342 25.832 -9.065
O 49.075 3.195 -29.147
O 230.535 24.877 -18.240
O 52.013 16.898 -5.572
O 110.886 20.425 -20.703
O 96.219 10.661 -11.672
O 72.251 12.054 -24.515
O 107.990 3.265 -25.191
O 97.152 9.797 -6.562
O 225.958 17.035 -7.211
O 108.186 27.955 -9.841
O 115.526 6.872 -15.684
O 65.805 8.357 -18.855
O 57.764 7.537 -0.312
O 92.257 25.377 -29.000
O 112.594 24.002 -21.991
O 117.285 21.550 -20.110
O 232.065 3.262 -18.081
O 72.844 20.945 -30.619
O 104.804 17.042 -28.842
O 91.683 23.394 -7.852
O 113.861 19.308 -21.338
O 91.778 15.640 -24.307
O 75.445 3.220 -14.996
O 89.287 12.486 -22.230
O 59.314 6.834 -24.794
O 101.757 21.950 -10.426
O 50.470 4.999 -30.618
O 227.815 28.936 -22.103
O 104.885 20.796 -21.933
O 233.418 27.552 -22.414
O 51.037 8.157 -1.906
O 121.871 15.056 -30.855
O 82.492 24.510 -23.385
O 110.447 11.749 -5.604
O 219.670 12.439 -1.325
O 52.231 9.809 -15.005
O 56.134 5.816 -3.721
O 91.385 5.603 -7.806
O 97.587 28.511 -4.763
O 59.766 26.832 -23.371
O 91.750 27.270 -30.934
O 226.765 6.608 -30.910
O 47.491 7.312 -5.382
O 90.781 11.668 -27.549
O 234.925 25.379 -10.960
O 104.507 11.670 -7.812
O 220.647 26.212 -22.937
O 70.582 21.288 -18.669
O 103.678 5.551 -23.436
O 104.501 27.472 -25.782
O 57.995 24.059 -17.628
O 70.443 22.367 -9.164
O 121.008 13.048 -24.466
O 89.845 8.043 -10.291
O 70.449 2.120 -17.465
O 73.219 24.935 -11.354
O 71.828 25.052 -20.532
O 96.346 12.970 -31.385
O 96.834 11.230 -27.641
O 86.933 14.544 -25.473
O 117.643 19.331 -26.434
O 92.815 29.860 -29.697
O 71.077 30.912 -1.542
O 80.986 4.818 -0.898
O 230.237 14.083 -0.027
O 109.200 24.799 -0.494
O 62.109 19.694 -12.732
O 66.599 17.750 -5.795
O 105.154 24.243 -13.581
O 82.622 0.460 -22.178
O 55.878 26.758 -1.910
O 231.563 22.580 -7.083
O 53.683 2.080 -17.604
O 94.637 11.973 -26.154
O 67.574 17.146 -25.635
O 83.131 22.038 -11.299
O 49.626 9.186 -29.786
O 232.298 5.689 -4.579
O 52.830 18.991 -31.089
O 105.478 7.891 -5.524
O 88.100 24.993 -7.620
O 91.134 15.338 -1.813
O 49.099 19.196 -21.828
O 106.444 3.089 -6.864
O 49.122 7.808 -20.355
O 231.217 26.184 -29.021
O 219.675 19.228 -13.021
O 53.901 17.504 -3.712
O 215.187 1.544 -15.559
O 49.952 8.560 -12.388
O 73.042 17.730 -25.572
O 108.312 16.777 -1.094
O 77.380 25.267 -13.237
O 107.776 30.626 -4.426
O 75.570 7.494 -30.243
O 232.550 11.238 -7.589
O 103.157 24.870 -4.346
O 231.969 1.075 -20.831
O 93.533 1.795 -23.880
O 74.953 12.042 -29.854
O 107.959 23.964 -15.963
O 74.959 14.784 -29.177
O 93.501 4.212 -10.592
O 232.968 13.258 -28.101
O 100.822 1.959 -27.884
O 108.601 0.795 -1.354
O 91.851 28.590 -26.195
O 109.418 12.701 -14.013
O 84.717 13.445 -24.132
O 101.720 4.588 -28.588
O 230.394 8.336 -23.515
O 55.890 10.323 -29.869
O 232.786 10.761 -10.447
O 234.426 28.357 -29.731
O 104.585 28.529 -13.258
O 52.076 12.625 -14.933
O 47.061 8.946 -15.543
O 110.419 23.551 -23.521
O 47.551 31.092 -21.701
O 110.071 22.650 -26.018
O 95.495 12.866 -7.071
O 227.698 26.748 -15.310
O 123.391 21.114 -12.064
O 95.225 9.764 -22.869
O 118.180 0.254 -28.990
O 59.667 10.165 -8.279
O 87.757 7.646 -31.168
O 59.812 23.421 -3.837
O 46.272 9.254 -8.570
O 52.571 3.114 -10.992
O 53.931 21.668 -10.403
O 82.669 13.899 -28.251
O 222.814 15.364 -24.841
O 220.161 23.433 -17.143
O 48.330 3.818 -8.143
O 72.545 1.765 -27.954
O 117.049 20.076 -11.569
O 220.067 2.263 -23.912
O 56.700 24.195 -24.959
O 63.064 8.348 -9.645
O 236.013 9.889 -11.293
O 226.627 22.259 -16.873
O 70.789 27.326 -6.339
O 94.065 22.953 -6.081
O 109.188 6.551 -13.613
O 113.120 13.117 -14.261
O 223.752 17.349 -3.474
O 114.700 20.287 -30.576
O 224.823 14.954 -15.611
O 108.524 4.850 -6.528
O 58.866 5.889 -9.807
O 114.761 13.843 -9.423
O 64.260 4.814 -9.634
O 223.597 3.809 -20.900
O 116.343 11.463 -8.151
O 78.821 15.156 -12.593
O 97.555 17.737 -17.353
O 75.469 21.497 -20.178
O 73.480 9.404 -24.448
O 92.801 1.006 -28.632
O 64.686 24.122 -11.955
O 234.319 11.388 -4.022
O 49.349 9.716 -18.423
O 234.191 8.582 -1.519
O 55.640 3.805 -17.224
O 98.406 3.965 -22.824
O 104.212 7.868 -14.822
O 71.518 7.000 -3.065
O 122.622 9.552 -20.217
O 223.951 17.305 -17.577
O 95.501 25.015 -26.991
O 52.872 20.176 -24.594
O 58.838 29.241 -7.197
O 78.092 29.545 -16.499
O 229.241 14.470 -5.707
O 95.812 27.632 -15.362
O 102.002 27.303 -14.342
O 113.054 9.662 -23.168
O 112.265 9.840 -20.255
O 99.192 9.608 -29.076
O 63.043 1.086 -23.716
O 226.426 17.072 -28.051
O 60.651 24.698 -16.612
O 108.793 9.887 -18.626
O 106.148 29.557 -1.532
O 86.793 11.478 -5.695
O 76.808 23.269 -4.401
O 85.462 7.573 -9.753
O 218.661 27.933 -21.791
O 75.774 26.899 -10.884
O 70.257 1.005 -11.547
O 221.577 5.961 -0.531
O 82.890 26.982 -7.573
O 48.015 18.971 -0.789
O 101.426 31.173 -16.516
O 85.393 11.666 -26.444
O 71.282 3.343 -2.460
O 77.377 18.718 -8.574
O 236.019 27.720 -21.666
O 103.344 7.921 -3.641
O 82.269 28.092 -11.214
O 102.714 12.165 -16.127
O 54.686 2.096 -23.269
O 86.526 9.067 -26.373
O 60.936 23.323 -29.414
O 117.021 18.268 -15.905
O 89.471 25.978 -9.871
O 90.368 8.193 -7.328
O 107.603 12.967 -18.454
O 57.660 1.314 -25.549
O 235.906 8.768 -17.731
O 220.084 13.340 -18.909
O 66.174 4.008 -19.562
O 61.373 21.555 -1.091
O 221.574 12.412 -9.067
O 111.146 21.439 -8.128
O 110.652 12.585 -25.935
O 90.435 8.475 -29.049
O 49.925 15.553 -20.040
O 108.033 29.485 -12.101
O 123.127 11.973 -27.806
O 230.945 7.163 -18.365
O 63.516 25.133 -16.570
O 97.074 22.555 -14.851
O 48.969 9.660 -26.352
O 105.442 30.772 -7.646
O 83.467 21.521 -4.601
O 56.923 0.504 -13.880
O 119.231 11.153 -25.678
O 73.478 12.080 -9.687
O 63.794 8.345 -30.110
O 233.092 4.761 -25.074
O 76.254 2.445 -19.959
O 108.617 31.032 -21.477
O 232.843 10.865 -29.782
O 81.719 16.670 -27.720
O 231.365 9.890 -17.668
O 60.497 11.837 -23.003
O 79.442 12.735 -5.794
O 111.580 26.658 -12.492
O 95.866 5.718 -23.313
O 64.531 4.842 -23.538
O 51.135 0.653 -28.107
O 69.637 30.852 -18.399
O 65.931 9.506 -21.372
O 229.033 2.182 -24.142
O 234.727 25.622 -3.820
O 85.635 21.529 -18.034
O 234.361 30.908 -9.255
O 103.465 20.279 -8.757
O 81.757 21.181 -8.701
O 91.746 18.331 -30.301
O 56.673 10.589 -12.031
O 93.929 25.039 -24.834
O 112.622 4.960 -18.139
O 222.214 30.824 -20.817
O 47.212 20.500 -11.587
O 91.831 18.387 -15.556
O 225.484 0.490 -21.577
O 88.240 17.808 -24.104
O 96.655 5.760 -6.237
O 91.168 23.189 -3.193
O 119.472 8.675 -23.820
O 99.723 2.333 -25.526
O 231.616 31.410 -8.811
O 110.904 29.299 -12.665
O 230.546 27.579 -0.295
O 66.265 27.740 -14.922
O 67.600 3.399 -1.179
O 69.518 12.776 -6.479
O 112.580 20.955 -25.546
O 223.597 2.623 -18.235
O 119.894 2.216 -8.175
O 67.732 11.673 -28.328
O 233.483 23.510 -24.047
O 83.527 21.402 -15.982
O 91.959 11.645 -16.557
O 84.265 8.528 -20.643
O 67.558 12.284 -21.491
O 85.783 28.355 -8.398
O 234.602 7.270 -3.952
O 221.933 31.402 -26.587
O 94.867 17.620 -24.011
O 79.985 21.136 -18.064
O 100.915 22.997 -8.056
O 88.075 13.239 -7.553
O 59.198 10.254 -11.065
O 223.700 10.568 -31.004
O 220.410 1.549 -14.461
O 63.581 4.682 -17.714
O 75.665 30.922 -16.100
O 74.240 27.592 -7.294
O 50.931 13.384 -12.574
O 47.417 10.980 -21.996
O 67.512 10.808 -14.003
O 89.232 28.547 -2.890
O 81.107 6.590 -27.265
O 96.169 18.639 -11.124
O 81.103 24.473 -28.224
O 68.404 25.473 -26.884
O 229.517 13.341 -22.327
O 66.894 25.748 -1.007
O 92.156 4.187 -0.511
O 115.594 13.400 -20.761
O 115.031 21.723 -22.246
O 103.439 17.094 -11.528
O 75.309 9.261 -16.345
O 119.058 16.036 -17.982
O 86.961 4.041 -0.230
O 49.833 30.754 -19.724
O 100.076 10.272 -13.090
O 63.450 6.435 -20.570
O 120.171 6.740 -2.536
O 115.669 11.161 -3.342
O 77.013 21.932 -1.218
O 84.924 7.531 -18.250
O 71.848 5.435 -5.231
O 97.828 0.213 -17.958
O 73.923 29.946 -3.328
O 70.869 1.140 -25.518
O 109.617 26.020 -24.168
O 110.948 4.136 -6.354
O 70.942 4.553 -9.535
O 58.929 26.330 -14.377
O 68.209 18.723 -14.102
O 75.775 12.914 -17.078
O 61.369 3.846 -30.665
O 106.024 23.999 -22.942
O 96.646 21.564 -0.230
O 78.246 10.324 -29.731
O 93.942 20.663 -15.507
O 59.426 24.315 -26.783
O 101.285 -0.041 -29.838
O 230.978 10.368 -25.144
O 65.666 4.616 -31.442
O 111.278 13.552 -9.671
O 110.783 24.267 -19.537
O 104.672 3.150 -11.437
O 66.629 27.637 -25.616
O 116.341 0.906 -22.187
O 73.054 2.346 -13.681
O 229.576 19.169 -26.306
O 80.284 1.198 -13.720
O 104.460 20.769 -17.488
O 70.353 14.973 -22.841
O 89.944 23.340 -5.578
O 104.635 30.200 -19.973
O 225.322 20.058 -13.627
O 72.123 18.417 -29.975
O 109.542 2.512 -13.288
O 53.983 4.959 -19.863
O 63.914 8.460 -26.971
O 106.150 31.082 -17.571
O 50.477 29.566 -0.343
O 54.686 28.918 -20.953
O 107.757 14.573 -24.591
O 96.464 7.610 -11.193
O 55.337 0.169 -19.856
O 50.133 3.616 -15.645
O 80.522 14.618 -26.404
O 227.667 1.608 -1.729
O 230.566 16.381 -29.868
O 118.258 7.413 -0.038
O 61.549 11.881 -10.681
O 111.317 9.134 -0.681
O 90.919 28.181 -9.149
O 219.935 8.780 -10.146
O 88.689 8.200 -24.590
O 110.986 15.970 -7.203
O 102.467 15.239 -31.171
O 84.516 27.234 -26.966
O 229.053 19.526 -15.928
O 103.829 25.076 -11.145
O 226.366 4.346 -17.121
O 101.858 2.388 -30.806
O 49.618 0.105 -8.741
O 108.871 28.273 -20.711
O 91.731 6.235 -22.617
O 117.397 20.069 -4.149
O 86.308 27.578 -22.778
O 51.863 27.382 -17.073
O 226.577 9.612 -30.472
O 104.102 0.070 -11.819
O 101.021 1.285 -23.456
O 104.506 11.841 -23.548
O 117.816 15.659 -7.406
O 233.077 17.012 -11.195
O 117.927 4.309 -23.324
O 60.582 9.215 -20.852
O 217.978 3.152 -22.474
O 106.868 13.177 -12.675
O 98.438 14.318 -6.062
O 91.793 26.750 -4.814
O 102.474 22.145 -21.405
O 231.034 5.449 -13.993
O 107.372 14.042 -29.003
O 220.655 18.497 -21.997
O 111.792 20.776 -12.564
O 118.955 31.000 -8.134
O 61.072 22.159 -9.179
O 61.221 5.472 -21.565
O 235.463 20.163 -2.700
O 77.251 12.924 -22.790
O 91.770 6.838 -1.688
O 114.025 3.845 -13.122
O 230.049 27.495 -17.729
O 105.494 23.465 -17.220
O 109.164 1.510 -28.300
O 222.315 23.762 -18.654
O 62.279 4.845 -15.210
O 104.243 3.778 -19.706
O 227.987 10.631 -28.204
O 234.210 24.012 -13.603
O 235.664 4.935 -2.779
O 59.276 24.587 -11.700
O 79.014 10.225 -18.968
O 121.953 21.233 -16.615
O 107.053 27.120 -6.208
O 58.167 20.243 -8.002
O 113.896 14.934 -0.260
O 102.478 26.831 -29.465
O 93.042 7.939 -4.136
O 92.781 1.847 -2.017
O 223.778 24.068 -1.024
O 102.596 0.629 -13.944
O 221.150 8.580 -14.662
O 118.116 14.323 -28.962
O 72.376 25.889 -8.899
O 99.105 1.459 -21.646
O 48.187 27.730 -22.803
O 57.740 23.723 -28.977
O 75.266 0.852 -21.785
O 113.002 25.779 -1.104
O 70.828 9.315 -22.442
O 85.816 30.246 -20.521
O 80.130 13.586 -0.935
O 52.242 16.302 -13.571
O 67.910 28.317 -0.914
O 58.600 14.919 -10.411
O 224.868 29.441 -1.938
O 115.034 16.456 -18.811
O 116.473 31.154 -31.046
O 234.580 9.043 -27.946
O 82.993 11.041 -3.215
O 82.727 0.603 -4.313
O 64.861 13.583 -2.928
O 101.969 12.943 -24.180
O 59.249 1.522 -3.509
O 57.355 11.392 -27.553
O 108.796 3.534 -18.787
O 97.848 24.785 -6.210
O 68.098 24.379 -17.708
O 221.654 24.545 -28.019
O 227.908 24.125 -13.717
O 55.561 11.771 -16.508
O 70.580 18.303 -8.291
O 57.145 31.140 -8.439
O 82.197 12.126 -30.880
O 48.552 6.558 -27.567
O 220.597 8.060 -30.308
O 46.703 0.294 -24.818
O 90.554 21.622 -27.689
O 224.555 19.398 -19.940
O 65.157 0.179 -20.586
O 230.538 22.653 -16.632
O 222.968 10.951 -25.601
O 67.370 2.004 -20.881
O 80.870 30.095 -2.871
O 109.159 14.658 -27.108
O 220.325 8.168 -17.433
O 76.417 9.107 -10.414
O 91.932 17.366 -26.764
O 77.123 21.267 -29.654
O 55.815 27.308 -30.684
O 74.674 25.513 -13.895
O 232.798 15.518 -25.954
O 83.393 14.011 -3.850
O 229.723 8.202 -20.485
O 73.464 30.878 -25.811
O 84.034 5.187 -9.885
O 82.920 16.645 -12.031
O 90.565 13.789 -5.924
O 93.466 18.247 -11.736
O 59.096 13.845 -12.973
O 52.805 28.118 -12.314
O 86.206 10.419 -21.016
O 52.257 0.670 -8.030
O 83.880 7.414 -4.907
O 79.891 22.149 -27.629
O 101.850 17.345 -5.049
O 220.657 11.076 -4.585
O 63.767 10.982 -22.122
O 105.039 5.674 -7.634
O 54.140 4.340 -13.759
O 84.596 27.285 -12.828
O 116.702 3.681 -19.408
O 225.296 19.620 -16.365
O 111.910 6.694 -5.778
O 114.552 25.427 -19.067
O 77.785 20.209 -19.250
O 102.723 18.566 -16.664
O 236.002 16.313 -6.027
O 108.553 11.620 -2.971
O 52.866 10.384 -8.004
O 99.982 27.357 -1.518
O 83.960 24.178 -15.779
O 96.537 22.241 -18.667
O 66.912 4.507 -8.682
O 233.552 8.022 -24.252
O 108.234 24.228 -18.870
O 118.904 0.755 -21.067
O 66.907 30.816 -0.701
O 78.148 12.424 -15.624
O 220.422 10.594 -18.701
O 103.942 27.758 -22.049
O 96.112 0.439 -24.152
O 62.397 29.321 -27.597
O 223.221 17.408 -21.995
O 106.808 22.124 -9.063
O 68.536 7.836 -28.191
O 221.683 28.715 -9.424
O 85.500 7.545 -15.502
O 81.607 1.940 -0.589
O 46.460 0.549 -13.022
O 59.553 23.909 -1.007
O 84.749 22.648 -20.407
O 102.519 18.865 -19.622
O 54.573 20.960 -13.286
O 232.797 26.903 -25.030
O 75.248 27.396 -30.170
O 222.687 21.380 -25.490
O 116.459 10.191 -12.834
O 87.441 30.274 -30.935
O 223.326 29.456 -18.678
O 53.013 5.558 -25.474
O 63.034 28.390 -22.963
O 106.303 2.766 -13.522
O 74.058 26.682 -17.370
O 231.286 4.542 -28.452
O 80.754 12.185 -16.596
O 116.740 14.299 -31.242
O 61.958 18.548 -23.308
O 104.626 16.533 -14.044
O 46.487 3.341 -4.411
O 51.994 25.377 -23.153
O 73.641 26.200 -0.606
O 122.295 19.931 -2.623
O 51.910 5.326 -1.519
O 233.358 29.945 -0.233
O 107.444 30.944 -23.914
O 114.964 14.348 -17.101
O 228.492 28.240 -28.298
O 51.623 23.852 -4.365
O 83.740 18.110 -23.030
O 97.775 5.745 -31.246
O 48.583 0.556 -29.019
O 120.186 4.613 -15.899
O 117.161 14.981 -26.389
O 48.437 20.999 -15.883
O 55.904 15.131 -9.599
O 232.298 26.802 -4.660
O 79.029 6.378 -11.104
O 103.861 25.473 -23.995
O 86.623 6.166 -23.429
O 221.853 5.669 -10.277
O 220.870 4.548 -24.933
O 235.621 23.627 -19.368
O 72.421 26.191 -4.538
O 230.984 13.910 -9.175
O 50.473 17.625 -0.586
O 94.969 31.292 -17.657
O 64.676 17.410 -20.381
O 97.426 13.519 -28.770
O 65.707 27.907 -19.458
O 230.349 7.652 -15.688
O 105.897 19.868 -26.108
O 227.140 5.546 -23.276
O 103.689 2.123 -28.014
O 47.083 24.918 -9.745
O 230.412 11.900 -2.930
O 73.924 31.358 -7.574
O 104.216 6.817 -17.464
O 230.450 12.276 -14.390
O 47.185 21.784 -6.924
O 122.072 2.592 -10.195
O 67.879 21.285 -17.641
O 49.219 1.638 -18.023
O 79.579 2.135 -6.594
O 49.687 14.749 -8.760
O 86.249 5.174 -28.735
O 77.769 6.499 -21.349
O 47.372 19.278 -8.997
O 230.343 22.369 -13.665
O 55.382 8.133 -22.376
O 110.432 1.913 -3.998
O 114.802 11.319 -10.792
O 104.353 22.597 -7.685
O 51.202 12.180 -18.631
O 55.071 23.468 -2.988
O 82.539 10.946 -26.048
O 121.525 7.155 -19.214
O 226.406 4.008 -28.858
O 226.015 12.570 -28.080
O 56.285 0.570 -29.470
O 100.873 17.159 -12.429
O 77.645 31.334 -0.836
O 96.195 24.171 -16.821
O 89.234 21.808 -25.164
O 70.828 30.113 -29.806
O 79.391 9.139 -25.677
O 85.155 19.418 -0.288
O 50.003 27.923 -20.585
O 119.222 20.239 -9.486
O 223.296 25.212 -30.012
O 81.186 19.184 -24.084
O 234.938 19.863 -22.802
O 111.613 7.438 -29.940
O 95.795 30.367 -14.607
O 86.188 16.836 -22.402
O 66.903 14.311 -1.011
O 85.206 20.028 -11.182
O 74.854 1.978 -10.202
O 87.034 1.253 -20.428
O 56.937 8.014 -5.353
O 81.695 9.200 -16.405
O 56.677 15.810 -1.278
O 62.767 10.221 -2.749
O 54.240 9.118 -24.582
O 93.604 14.272 -0.484
O 220.216 10.858 -30.508
O 121.312 12.490 -29.780
O 72.439 24.602 -14.978
O 65.741 8.388 -5.779
O 81.762 20.321 -2.542
O 227.061 8.269 -26.824
O 75.802 5.411 -19.814
O 226.472 24.240 -0.830
O 228.048 20.039 -22.255
O 102.709 14.084 -21.741
O 57.305 9.119 -20.770
O 234.052 4.477 -13.738
O 80.926 2.280 -20.868
O 94.410 10.104 -5.033
O 223.032 27.650 -16.299
O 46.365 18.237 -30.025
O 73.799 4.396 -2.120
O 92.647 7.264 -20.069
O 224.592 19.249 -25.863
O 73.469 22.168 -24.363
O 109.764 12.037 -17.038
O 231.353 12.581 -18.276
O 62.410 11.417 -28.580
O 232.983 3.336 -22.305
O 50.529 10.056 -6.238
O 62.797 13.156 -20.553
O 61.337 9.871 -30.895
O 49.059 26.550 -13.177
O 62.915 20.379 -18.273
O 49.683 18.652 -16.761
O 83.552 29.707 -6.088
O 52.396 16.299 -19.213
O 74.028 24.333 -6.038
O 115.299 4.376 -17.116
O 235.957 8.072 -30.744
O 109.169 27.658 -26.086
O 79.084 6.726 -18.523
O 94.731 1.670 -19.540
O 122.137 19.464 -20.977
O 62.892 2.732 -5.936
O 96.066 23.360 -29.216
O 88.864 25.623 -16.781
O 230.692 11.136 -0.346
O 112.892 29.737 -7.869
O 78.145 16.880 -1.070
O 68.676 9.987 -26.433
O 65.654 18.503 -18.004
O 77.801 6.602 -6.999
O 59.808 5.858 -1.142
O 117.671 28.944 -28.518
O 54.578 30.369 -14.283
O 86.591 12.585 -10.801
O 86.509 19.383 -7.936
O 78.675 27.782 -9.506
O 60.172 14.438 -22.818
O 90.328 6.257 -25.000
O 104.345 29.567 -4.445
O 77.438 5.309 -30.987
O 102.096 17.121 -29.180
O 65.635 1.827 -23.367
O 105.898 5.953 -11.566
O 106.599 8.513 -17.156
O 71.034 26.459 -24.139
O 48.964 3.595 -24.616
O 113.622 22.846 -8.333
O 233.871 30.456 -17.377
O 60.030 11.310 -13.559
O 51.839 18.634 -26.488
O 110.427 1.259 -24.669
O 89.222 30.572 -17.916
O 69.911 24.325 -22.707
O 57.375 0.583 -0.596
O 72.284 10.446 -1.232
O 51.997 6.647 -22.796
O 116.983 11.505 -0.620
O 119.205 27.114 -19.733
O 228.327 17.665 -3.564
O 232.233 23.722 -29.518
O 100.133 13.752 -29.795
O 122.394 8.294 -14.627
O 230.469 26.944 -14.431
O 224.233 29.279 -10.000
O 66.530 19.068 -3.274
O 56.347 3.398 -12.016
O 61.091 5.559 -4.442
O 221.864 3.192 -1.124
O 70.653 14.142 -30.444
O 106.472 21.709 -13.006
O 78.659 29.691 -22.488
O 60.157 18.565 -25.911
O 102.637 6.251 -1.549
O 88.499 21.934 -22.691
O 65.677 1.122 -6.087
O 92.145 1.902 -9.179
O 71.654 18.016 -2.758
O 223.359 23.621 -15.564
O 76.143 24.593 -9.736
O 105.928 1.113 -2.481
O 62.310 6.449 -11.593
O 65.556 29.108 -22.031
O 229.803 18.904 -18.529
O 228.700 12.886 -18.628
O 54.826 7.288 -8.416
O 48.798 14.889 -11.379
O 83.554 19.153 -20.326
O 71.498 10.302 -26.612
O 46.771 31.297 -2.444
O 53.784 24.216 -25.313
O 119.557 6.018 -20.638
O 110.962 17.615 -13.089
O 50.110 7.358 -5.143
O 106.430 13.909 -2.024
O 225.890 24.675 -15.761
O 50.711 11.825 -4.241
O 89.442 14.398 -3.608
O 51.166 21.141 -11.994
O 98.474 30.591 -15.480
O 114.957 29.828 -15.582
O 51.453 3.401 -18.203
O 79.500 18.535 -11.739
O 234.508 12.025 -0.306
O 219.336 2.946 -10.699
O 111.882 19.674 -23.203
O 66.992 23.113 -9.279
O 114.425 23.047 -17.296
O 98.276 4.303 -10.072
O 76.931 28.442 -12.963
O 112.227 26.528 -18.600
O 220.263 6.972 -12.061
O 101.546 24.670 -16.945
O 225.092 13.433 -4.874
O 68.049 21.523 -3.549
O 66.144 29.984 -27.105
O 60.972 8.805 -28.045
O 78.151 0.054 -5.796
O 88.492 22.003 -1.143
O 113.934 8.339 -25.506
O 69.591 30.171 -24.820
O 224.029 23.862 -25.516
O 110.333 2.938 -22.311
O 90.257 17.925 -1.349
O 221.797 17.698 -26.934
O 87.265 20.841 -30.460
O 78.182 10.530 -2.162
O 89.850 0.353 -0.444
O 222.926 20.916 -16.869
O 227.829 11.795 -5.371
O 73.388 3.600 -25.909
O 84.967 0.331 -30.803
O 99.136 24.290 -15.256
O 86.242 22.819 -8.506
O 84.640 30.391 -10.068
O 54.026 22.146 -27.524
O 55.170 27.666 -15.162
O 53.029 30.880 -16.563
O 51.766 29.490 -29.213
O 98.641 24.449 -26.428
O 71.572 15.679 -1.043
O 56.857 20.192 -0.526
O 233.516 3.052 -30.009
O 107.384 10.591 -20.771
O 110.090 15.046 -22.783
O 230.292 24.451 -21.408
O 107.710 16.811 -7.758
O 236.318 16.101 -28.268
O 54.026 5.521 -5.883
O 81.154 29.982 -23.456
O 52.362 3.250 -28.278
O 112.988 30.694 -11.463
O 87.460 12.705 -27.776
O 94.401 29.329 -2.638
O 59.887 26.686 -1.767
O 69.051 20.055 -23.117
O 223.901 5.345 -16.187
O 62.596 5.936 -29.099
O 84.764 18.483 -13.531
O 113.391 28.549 -0.289
O 58.525 4.179 -4.536
O 92.516 21.214 -2.156
O 112.271 16.785 -1.583
O 113.713 27.139 -8.857
O 88.814 1.988 -27.000
O 114.700 9.025 -19.643
O 106.462 21.385 -28.445
O 64.215 1.244 -11.227
O 229.447 26.303 -26.641
O 67.442 0.330 -9.886
O 95.631 16.252 -26.193
O 107.832 1.984 -4.522
O 229.508 2.772 -3.356
O 102.433 6.800 -25.504
O 221.036 27.097 -18.524
O 94.351 24.085 -19.454
O 57.510 14.286 -18.113
O 75.164 6.054 -17.395
O 84.531 24.348 -12.453
O 83.085 23.954 -18.445
O 92.697 4.940 -18.839
O 84.456 30.603 -18.158
O 51.618 26.905 -28.351
O 58.268 17.907 -29.418
O 59.758 31.116 -13.845
O 67.612 18.285 -8.430
O 87.360 6.550 -18.483
O 222.473 20.552 -22.871
O 103.500 15.912 -2.855
O 79.793 20.491 -14.309
O 58.747 1.317 -18.117
O 100.041 19.563 -3.859
O 117.803 20.261 -7.207
O 100.413 7.051 -29.007
O 85.701 3.129 -22.285
O 46.652 24.064 -17.129
O 74.355 8.626 -4.669
O 112.276 18.010 -28.779
O 65.820 21.712 -19.255
O 53.192 10.633 -17.805
O 50.089 29.167 -5.302
O 71.383 27.764 -17.204
O 90.544 23.593 -22.172
O 98.120 22.521 -10.834
O 101.236 30.031 -23.773
O 226.452 11.489 -18.039
O 111.544 8.390 -27.255
O 61.381 8.037 -23.274
O 75.251 17.905 -10.413
O 48.179 10.433 -11.338
O 89.663 1.961 -20.916
O 62.579 25.142 -20.245
O 56.513 29.352 -3.387
O 53.289 23.519 -7.725
O 235.716 12.566 -26.991
O 60.595 19.267 -3.316
O 72.435 2.457 -6.163
O 222.083 0.863 -8.762
O 233.279 14.662 -7.572
O 80.369 14.090 -23.744
O 122.952 23.546 -0.480
O 110.936 3.295 -9.027
O 224.816 19.035 -5.692
O 79.087 24.430 -5.559
O 91.791 1.632 -18.915
O 224.776 9.658 -27.222
O 82.221 12.913 -19.080
O 234.871 1.921 -19.180
O 120.835 26.207 -29.469
O 107.466 26.590 -22.666
O 50.297 23.002 -16.508
O 220.599 17.591 -29.372
O 51.726 22.807 -20.683
O 111.601 28.484 -20.666
O 78.450 7.974 -28.121
O 111.613 18.185 -5.753
O 235.533 6.081 -24.657
O 50.859 22.186 -2.391
O 217.208 3.542 -15.858
O 53.471 7.985 -3.646
O 75.469 17.438 -3.951
O 65.711 23.227 -2.676
O 84.564 29.610 -23.111
O 230.339 6.796 -11.843
O 61.286 22.296 -24.193
O 233.466 6.980 -16.980
O 99.925 14.919 -11.372
O 107.098 14.614 -21.648
O 104.227 29.077 -28.400
O 93.670 23.636 -30.695
O 116.832 4.720 -7.450
O 109.108 14.096 -5.763
O 99.663 14.166 -8.458
O 225.253 19.517 -28.739
O 87.290 12.636 -3.229
O 67.665 31.472 -14.829
O 82.580 20.733 -27.096
O 72.628 24.257 -30.340
O 84.572 22.618 -23.130
O 224.067 22.152 -6.654
O 221.347 28.016 -6.859
O 77.288 2.911 -3.266
O 81.219 8.970 -31.334
O 73.427 30.376 -20.135
O 65.651 1.956 -8.838
O 229.040 4.520 -11.713
O 105.292 11.635 -17.533
O 223.101 28.780 -4.935
O 77.915 21.941 -25.598
O 54.714 28.462 -5.341
O 93.275 22.673 -21.581
O 51.943 6.348 -27.977
O 110.711 8.423 -10.169
O 67.973 15.694 -9.707
O 47.410 7.524 -23.600
O 102.779 3.177 -15.665
O 52.465 15.340 -2.595
O 69.673 4.555 -22.444
O 108.931 24.905 -4.011
O 74.019 19.367 -18.370
O 73.382 15.131 -22.047
O 78.297 21.822 -6.822
O 71.582 6.969 -31.098
O 226.984 3.218 -25.731
O 72.162 29.124 -27.596
O 56.511 31.297 -17.282
O 99.615 13.207 -13.614
O 68.083 3.729 -13.296
O 52.570 2.670 -15.107
O 61.108 15.580 -13.476
O 235.482 25.833 -15.274
O 121.834 27.722 -19.019
O 84.506 25.622 -30.488
O 54.603 15.038 -12.042
O 111.667 23.477 -0.227
O 85.036 15.318 -13.375
O 83.817 26.287 -21.737
O 76.730 17.411 -27.014
O 98.162 8.619 -31.421
O 59.569 7.638 -11.922
O 216.850 30.867 -13.443
O 108.134 9.411 -13.571
O 46.253 14.033 -12.728
O 91.069 18.878 -9.170
O 75.299 0.800 -12.689
O 80.193 18.907 -9.144
O 108.594 23.031 -28.806
O 68.527 24.662 -14.691
O 80.342 3.799 -14.709
O 102.578 24.782 -20.856
O 108.519 5.412 -26.969
O 119.452 23.748 -30.659
O 95.437 13.085 -23.800
O 85.098 31.287 -25.207
O 47.663 12.332 -9.577
O 89.995 11.903 -19.225
O 225.107 17.017 -23.958
O 115.650 30.985 -10.745
O 112.219 11.460 -27.651
O 112.127 8.443 -7.954
O 84.796 6.636 -26.897
O 63.715 21.420 -6.757
O 88.291 9.407 -4.083
O 57.378 6.430 -22.910
O 226.375 16.028 -11.369
O 117.416 21.558 -1.844
O 50.230 31.118 -16.131
O 109.182 12.892 -20.740
O 83.304 17.504 -8.960
O 75.873 2.504 -27.458
O 99.751 11.530 -3.493
O 98.618 6.818 -9.114
O 48.828 24.526 -3.892
O 226.207 0.834 -10.242
O 221.965 3.165 -7.131
O 49.542 17.137 -13.353
O 62.696 0.160 -19.480
O 69.492 6.991 -19.065
O 116.646 12.277 -25.264
O 99.849 2.335 -5.264
O 70.973 24.346 -17.378
O 55.048 12.357 -5.725
O 90.845 9.730 -25.497
O 92.654 9.833 -8.811
O 232.746 30.324 -22.399
O 233.281 25.147 -18.927
O 102.497 30.208 -2.219
O 68.864 10.971 -4.039
O 69.805 25.086 -8.662
O 101.744 14.075 -19.291
O 92.004 13.284 -22.713
O 81.630 25.246 -10.861
O 64.659 23.550 -5.370
O 110.571 1.253 -20.311
O 76.241 19.823 -25.549
O 99.672 22.956 -4.733
O 62.498 14.037 -30.232
O 60.239 13.771 -2.985
O 64.961 1.200 -26.879
O 121.914 27.147 -0.530
O 95.583 2.295 -28.562
O 81.375 8.684 -8.240
O 229.961 9.292 -3.734
O 224.519 2.864 -9.578
O 118.262 12.580 -18.998
O 53.235 27.048 -25.157
O 87.643 29.962 -11.878
O 112.299 14.597 -12.104
O 74.278 4.684 -23.354
O 65.217 2.034 -29.658
O 50.681 6.498 -15.993
O 106.714 26.441 -3.529
O 106.190 21.587 -1.301
O 73.558 16.331 -30.939
O 76.198 19.972 -6.070
O 46.780 14.891 -23.164
O 108.572 9.974 -10.759
O 62.433 19.629 -26.743
O 80.648 9.994 -5.596
O 91.205 26.306 -22.995
O 94.445 15.509 -22.197
O 114.874 3.337 -22.619
O 64.968 11.118 -26.918
O 53.248 11.592 -2.905
O 109.977 9.286 -15.845
O 66.311 21.683 -12.120
O 102.775 29.983 -26.307
O 47.376 2.291 -22.460
O 115.427 25.084 -24.560
O 112.681 12.194 -30.159
O 77.380 12.774 -25.750
O 112.408 4.632 -22.892
O 118.736 19.659 -0.239
O 66.364 9.514 -8.479
O 94.967 23.698 -1.745
O 229.330 26.886 -9.569
O 55.860 24.162 -6.775
O 108.996 0.147 -6.863
O 227.496 26.236 -30.011
O 223.234 21.349 -0.418
O 54.753 30.076 -7.931
O 96.359 25.076 -13.584
O 223.964 5.779 -6.388
O 67.903 13.990 -12.075
O 80.635 16.189 -30.882
O 67.317 6.268 -20.483
O 52.656 26.778 -20.636
O 104.585 25.517 -31.177
O 59.487 29.856 -18.426
O 64.599 29.693 -8.005
O 73.235 10.116 -6.751
O 123.588 5.368 -19.122
O 104.168 9.724 -19.258
O 77.522 26.407 -0.111
O 69.627 24.730 -5.756
O 228.416 8.119 -5.795
O 107.753 7.168 -0.332
O 111.141 27.877 -7.131
O 86.956 23.979 -23.387
O 93.334 12.191 -3.712
O 63.527 9.206 -16.120
O 120.826 10.340 -22.055
O 76.144 23.131 -15.935
O 224.251 7.862 -14.930
O 67.123 2.541 -26.094
O 77.179 3.684 -5.925
O 101.563 22.977 -13.434
O 80.795 22.942 -21.339
O 106.911 3.924 -1.782
O 76.353 28.791 -26.087
O 108.166 31.300 -9.367
O 67.776 2.870 -28.767
O 64.619 17.100 -8.585
O 122.307 3.719 -0.751
O 227.936 24.785 -10.985
O 120.573 18.259 -26.962
O 231.107 1.283 -0.834
O 99.274 12.730 -23.119
O 70.271 12.127 -14.561
O 225.630 6.214 -2.009
O 235.883 29.823 -4.484
O 227.053 20.613 -25.161
O 77.302 6.337 -25.613
O 76.052 14.370 -4.464
O 101.706 5.661 -19.687
O 64.484 2.924 -3.505
O 70.408 26.858 -0.058
O 48.434 28.811 -15.402
O 100.484 1.714 -2.186
O 95.135 10.913 -29.884
O 50.860 21.185 -8.837
O 86.428 2.307 -29.164
O 58.068 25.700 -3.890
O 231.327 1.459 -11.290
O 57.543 24.478 -20.348
O 73.849 21.529 -6.000
O 221.715 2.609 -4.394
O 48.078 10.780 -7.347
O 119.295 21.748 -13.569
O 232.806 6.601 -28.735
O 73.589 18.143 -6.226
O 72.120 11.664 -30.242
O 101.807 20.124 -14.588
O 89.366 30.651 -4.808
O 63.100 30.378 -12.380
O 78.284 30.326 -3.434
O 97.073 19.867 -7.424
O 107.356 6.290 -20.720
O 84.175 0.901 -1.788
O 70.033 30.677 -13.677
O 56.758 27.576 -13.028
O 54.391 29.962 -30.003
O 67.311 13.723 -7.742
O 92.736 12.433 -29.455
O 110.840 25.064 -10.497
O 56.283 4.019 -6.885
O 46.414 13.082 -20.924
O 58.529 27.732 -30.941
O 103.535 10.915 -30.704
O 47.511 14.374 -29.658
O 95.076 15.630 -6.871
O 47.105 18.369 -6.401
O 48.742 16.552 -3.243
O 100.950 26.460 -19.346
O 106.030 1.906 -23.133
O 222.206 13.918 -15.940
O 222.946 2.034 -22.743
O 106.820 5.267 -14.335
O 97.003 2.006 -31.135
O 91.706 3.132 -4.486
O 119.964 15.225 -11.470
O 223.585 18.666 -10.938
O 236.400 21.529 -0.360
O 79.764 6.881 -30.387
C 217.589 16.311 -18.883
O 217.683 15.157 -18.953
O 217.495 17.465 -18.813
C 121.230 0.745 -4.076
O 120.386 0.497 -4.832
O 122.074 0.993 -3.320
C 218.422 24.938 -10.900
O 218.367 24.851 -12.055
O 218.477 25.025 -9.744
C 218.819 26.572 -29.613
O 218.541 27.555 -30.162
O 219.097 25.588 -29.064
C 217.574 27.732 -18.037
O 217.200 28.615 -18.689
O 217.948 26.849 -17.385
C 155.882 10.325 -23.255
O 156.305 9.886 -22.268
O 155.458 10.764 -24.242
C 169.288 8.377 -13.703
O 169.370 7.901 -14.757
O 169.206 8.853 -12.648
C 195.677 27.732 -9.614
O 195.542 28.824 -9.982
O 195.812 26.640 -9.246
C 152.986 26.063 -17.678
O 152.681 24.957 -17.848
O 153.291 27.169 -17.508
C 148.708 7.995 -14.511
O 148.880 8.471 -15.555
O 148.536 7.519 -13.467
C 123.900 1.249 -29.917
O 123.227 1.617 -30.787
O 124.573 0.881 -29.047
C 145.799 3.883 -24.415
O 145.226 3.134 -23.740
O 146.372 4.633 -25.090
C 194.627 25.861 -12.973
O 194.853 25.311 -13.969
O 194.400 26.410 -11.976
C 131.284 18.632 -21.947
O 130.156 18.427 -22.126
O 132.412 18.837 -21.768
C 151.578 10.118 -13.630
O 151.279 9.298 -12.865
O 151.877 10.938 -14.394
C 219.894 30.976 -0.948
O 219.936 0.675 -1.201
O 219.853 29.845 -0.695
C 122.995 10.724 -12.926
O 123.828 10.258 -12.266
O 122.163 11.190 -13.586
C 218.357 2.635 -3.477
O 218.324 3.343 -2.559
O 218.390 1.927 -4.395
C 146.917 20.721 -21.016
O 147.706 21.119 -21.768
O 146.128 20.323 -20.265
C 129.351 5.626 -11.963
O 129.863 6.368 -12.693
O 128.839 4.884 -11.233
C 217.820 9.013 -19.902
O 217.419 9.656 -19.023
O 218.222 8.371 -20.781
C 163.269 21.177 -11.573
O 162.965 20.129 -11.967
O 163.573 22.224 -11.179
C 213.524 12.062 -6.338
O 214.011 11.463 -7.204
O 213.037 12.661 -5.472
C 193.281 22.511 -11.455
O 193.424 21.396 -11.169
O 193.139 23.626 -11.741
C 212.953 20.573 -16.887
O 212.775 21.225 -15.944
O 213.130 19.921 -17.830
C 147.382 28.309 -7.011
O 148.035 28.933 -7.739
O 146.728 27.686 -6.283
C 166.430 7.871 -6.741
O 166.221 8.884 -7.266
O 166.639 6.859 -6.215
C 138.365 0.959 -10.409
O 138.542 2.021 -9.979
O 138.188 31.328 -10.839
C 234.696 2.379 -10.666
O 235.231 2.758 -9.709
O 234.161 2.001 -11.623
C 148.381 25.370 -14.675
O 149.399 25.760 -15.070
O 147.362 24.981 -14.280
C 216.819 15.747 -25.587
O 217.589 16.269 -24.893
O 216.049 15.226 -26.280
C 124.216 12.966 -23.569
O 124.250 12.508 -24.634
O 124.182 13.425 -22.503
C 125.944 19.367 -12.700
O 126.360 20.415 -12.972
O 125.527 18.319 -12.429
C 122.786 30.645 -7.100
O 122.619 0.123 -7.799
O 122.953 29.735 -6.400
C 144.868 25.464 -11.296
O 145.510 26.429 -11.246
O 144.226 24.499 -11.346
C 210.541 18.772 -23.018
O 209.833 19.460 -22.409
O 211.249 18.083 -23.627
C 216.299 5.523 -29.258
O 217.049 6.360 -29.544
O 215.549 4.685 -28.972
C 190.524 0.320 -7.490
O 189.512 0.887 -7.463
O 191.535 31.185 -7.517
C 177.546 2.272 -28.588
O 176.465 2.374 -28.995
O 178.628 2.169 -28.181
C 182.954 14.593 -14.110
O 184.002 14.336 -13.684
O 181.907 14.851 -14.535
C 176.613 18.726 -22.814
O 176.812 19.499 -21.972
O 176.413 17.953 -23.656
C 125.407 5.652 -14.812
O 125.837 4.579 -14.712
O 124.977 6.725 -14.912
C 201.137 28.576 -11.629
O 201.418 29.375 -12.421
O 200.857 27.776 -10.836
C 216.733 8.362 -24.940
O 216.688 9.424 -24.476
O 216.778 7.300 -25.403
C 130.385 18.390 -14.210
O 131.399 18.281 -14.763
O 129.371 18.498 -13.657
C 197.373 13.565 -16.154
O 196.888 12.752 -16.824
O 197.859 14.378 -15.485
C 191.268 2.493 -27.282
O 191.847 1.487 -27.259
O 190.690 3.498 -27.304
C 123.414 25.107 -21.550
O 123.900 25.155 -20.498
O 122.928 25.058 -22.603
C 133.422 0.330 -10.397
O 134.453 0.741 -10.735
O 132.391 31.352 -10.058
C 154.382 8.773 -14.289
O 154.693 9.681 -14.941
O 154.071 7.865 -13.637
C 159.811 30.106 -10.509
O 160.797 29.507 -10.388
O 158.825 30.705 -10.631
C 210.043 24.209 -28.531
O 210.952 24.051 -27.828
O 209.134 24.366 -29.235
C 135.573 12.500 -18.574
O 135.267 12.294 -17.474
O 135.879 12.706 -19.674
C 217.324 24.833 -20.719
O 218.408 24.919 -20.316
O 216.240 24.747 -21.122
C 190.891 26.879 -23.474
O 191.889 26.369 -23.176
O 189.892 27.389 -23.771
C 137.328 13.974 -26.754
O 138.467 13.926 -26.539
O 136.189 14.022 -26.968
C 202.973 14.334 -10.397
O 203.211 15.465 -10.296
O 202.736 13.203 -10.498
C 124.158 17.117 -21.251
O 123.102 16.714 -21.514
O 125.213 17.519 -20.987
C 173.283 8.539 -27.633
O 172.803 8.684 -28.679
O 173.762 8.395 -26.587
C 146.950 20.986 -0.952
O 147.334 21.893 -1.564
O 146.566 20.078 -0.339
C 215.388 2.913 -8.948
O 216.516 2.930 -9.216
O 214.259 2.897 -8.680
C 165.145 16.351 -6.406
O 165.149 15.243 -6.748
O 165.142 17.460 -6.064
C 192.990 8.067 -25.852
O 191.830 8.067 -25.852
O 194.150 8.067 -25.852
C 205.163 20.344 -28.930
O 204.043 20.500 -28.668
O 206.282 20.188 -29.193
C 184.234 20.750 -5.829
O 185.190 21.405 -5.790
O 183.277 20.095 -5.868
C 188.345 11.159 -14.397
O 188.858 11.576 -13.444
O 187.831 10.742 -15.350
C 202.434 5.227 -8.036
O 201.614 4.432 -7.831
O 203.253 6.021 -8.241
C 168.281 18.860 -26.988
O 167.247 19.319 -26.731
O 169.315 18.401 -27.244
C 177.916 23.181 -10.021
O 178.608 22.439 -9.458
O 177.225 23.923 -10.584
C 192.096 11.739 -13.084
O 192.256 11.309 -12.019
O 191.937 12.169 -14.150
C 46.606 21.722 -25.854
O 47.625 21.621 -26.400
O 236.118 21.823 -25.308
C 158.387 25.457 -16.074
O 159.085 25.812 -15.219
O 157.688 25.102 -16.929
C 76.308 18.630 -14.576
O 77.394 18.338 -14.859
O 75.221 18.922 -14.293
C 169.963 9.234 -9.337
O 169.705 8.158 -8.989
O 170.221 10.309 -9.686
C 205.228 8.591 -23.255
O 204.669 7.838 -22.573
O 205.786 9.344 -23.938
C 147.140 27.387 -19.495
O 146.584 26.479 -19.036
O 147.696 28.296 -19.955
C 143.425 0.587 -13.159
O 142.738 0.270 -12.279
O 144.112 0.903 -14.038
C 181.883 2.498 -2.213
O 180.881 2.349 -1.648
O 182.885 2.647 -2.778
C 152.985 4.470 -16.063
O 152.044 4.806 -16.653
O 153.925 4.134 -15.472
C 121.766 0.045 -24.442
O 121.907 30.401 -24.854
O 121.625 1.120 -24.031
C 226.658 25.299 -6.620
O 226.844 24.612 -5.704
O 226.471 25.986 -7.537
C 201.071 23.761 -7.851
O 201.167 24.336 -6.848
O 200.975 23.186 -8.854
C 201.731 21.579 -21.256
O 200.924 20.754 -21.380
O 202.537 22.403 -21.132
C 193.549 12.117 -24.159
O 193.468 10.960 -24.176
O 193.631 13.274 -24.141
C 128.275 12.436 -16.898
O 128.490 13.277 -16.128
O 128.060 11.595 -17.667
C 185.842 4.641 -0.886
O 185.804 5.539 -1.619
O 185.880 3.743 -0.152
C 154.695 24.148 -30.680
O 155.540 24.941 -30.742
O 153.851 23.355 -30.618
C 126.174 30.712 -12.754
O 125.256 31.125 -13.330
O 127.092 30.299 -12.178
C 135.065 2.586 -15.962
O 133.988 3.017 -15.958
O 136.142 2.154 -15.966
C 135.669 24.471 -20.532
O 135.781 23.582 -19.795
O 135.556 25.360 -21.269
C 119.180 9.860 -4.418
O 118.787 10.949 -4.486
O 119.573 8.771 -4.350
C 215.134 24.112 -16.858
O 215.800 24.093 -17.808
O 214.468 24.131 -15.908
C 156.452 0.218 -23.933
O 155.759 30.742 -24.138
O 157.144 1.126 -23.729
C 163.852 15.996 -18.710
O 163.472 15.038 -18.178
O 164.232 16.954 -19.242
C 51.268 12.182 -25.215
O 51.585 11.089 -24.992
O 50.952 13.276 -25.439
C 212.991 14.778 -22.310
O 213.838 14.074 -22.674
O 212.144 15.483 -21.946
C 190.000 23.227 -26.471
O 189.709 22.337 -25.786
O 190.291 24.116 -27.157
C 214.118 2.433 -1.091
O 213.188 2.429 -1.784
O 215.048 2.437 -0.398
C 204.933 10.166 -6.826
O 205.526 10.130 -7.823
O 204.341 10.202 -5.829
C 206.737 25.173 -7.896
O 207.620 24.879 -8.589
O 205.855 25.467 -7.203
C 161.789 7.799 -9.433
O 161.653 7.862 -8.282
O 161.925 7.737 -10.583
C 170.396 1.230 -22.234
O 169.482 1.897 -21.978
O 171.310 0.562 -22.489
C 144.602 27.567 -0.220
O 145.276 26.712 -31.250
O 143.928 28.421 -0.622
C 165.951 7.246 -10.819
O 165.703 8.236 -10.268
O 166.200 6.256 -11.370
C 118.183 23.556 -17.298
O 118.458 22.472 -17.607
O 117.908 24.639 -16.989
C 121.456 25.473 -3.918
O 120.758 25.727 -4.809
O 122.153 25.218 -3.027
C 216.526 17.662 -3.595
O 216.976 17.962 -4.621
O 216.076 17.361 -2.569
C 209.652 31.016 -11.032
O 210.670 30.731 -10.553
O 208.635 31.302 -11.510
C 124.040 28.667 -9.520
O 123.324 28.582 -10.429
O 124.757 28.753 -8.612
C 218.950 4.780 -6.093
O 219.047 5.272 -5.047
O 218.854 4.288 -7.139
C 217.095 29.105 -7.912
O 217.830 28.486 -8.562
O 216.360 29.724 -7.262
C 214.069 8.846 -0.004
O 214.513 8.129 -30.640
O 213.624 9.563 -0.801
C 131.012 1.628 -14.329
O 132.101 1.300 -14.101
O 129.923 1.956 -14.557
C 143.132 27.660 -20.357
O 143.878 28.366 -20.897
O 142.385 26.955 -19.817
C 86.898 22.991 -4.747
O 87.611 23.281 -3.879
O 86.184 22.702 -5.615
C 152.269 27.334 -21.996
O 152.878 26.656 -21.278
O 151.661 28.012 -22.714
C 156.242 26.892 -21.905
O 155.788 27.831 -21.397
O 156.696 25.953 -22.413
C 152.963 2.641 -11.938
O 152.036 2.488 -12.618
O 153.891 2.793 -11.258
C 218.226 22.489 -14.311
O 217.517 23.041 -15.045
O 218.935 21.937 -13.578
C 194.434 0.955 -8.376
O 194.011 1.767 -9.087
O 194.858 0.142 -7.664
C 138.208 0.673 -29.676
O 138.563 1.716 -30.038
O 137.852 31.062 -29.314
C 213.629 2.657 -20.756
O 213.137 2.603 -19.707
O 214.121 2.712 -21.805
C 210.023 27.958 -25.419
O 209.919 26.995 -26.058
O 210.128 28.920 -24.780
C 194.721 6.134 -12.952
O 195.780 5.845 -13.327
O 193.663 6.424 -12.576
C 123.945 24.971 -11.982
O 123.959 24.225 -11.094
O 123.930 25.717 -12.870
C 125.166 26.038 -30.065
O 124.463 25.174 -29.740
O 125.869 26.902 -30.391
C 165.573 14.794 -30.079
O 165.878 13.685 -29.928
O 165.268 15.903 -30.231
C 224.653 7.048 -24.666
O 225.123 6.305 -25.424
O 224.183 7.790 -23.909
C 182.148 29.392 -1.012
O 183.013 29.290 -1.778
O 181.282 29.494 -0.247
C 50.607 21.519 -25.347
O 51.190 22.519 -25.424
O 50.025 20.519 -25.270
C 190.474 21.791 -12.832
O 191.547 21.384 -13.002
O 189.401 22.199 -12.663
C 203.765 1.939 -4.462
O 204.737 1.315 -4.570
O 202.794 2.564 -4.354
C 147.043 30.697 -9.935
O 147.989 31.363 -10.025
O 146.097 30.031 -9.845
C 216.995 20.712 -17.682
O 215.980 21.078 -17.255
O 218.009 20.348 -18.110
C 212.976 29.526 -16.124
O 212.751 29.281 -15.013
O 213.201 29.771 -17.236
C 126.774 20.202 -19.791
O 126.129 20.771 -19.013
O 127.419 19.633 -20.570
C 200.554 15.192 -16.852
O 200.846 14.073 -16.946
O 200.262 16.311 -16.757
C 220.778 18.212 -3.622
O 220.963 17.532 -2.700
O 220.593 18.891 -4.544
C 167.319 20.429 -0.812
O 167.065 21.549 -0.970
O 167.574 19.308 -0.654
C 147.085 3.250 -8.453
O 147.059 2.108 -8.256
O 147.110 4.393 -8.651
C 212.882 11.365 -16.666
O 213.789 10.738 -17.024
O 211.974 11.993 -16.309
C 175.677 28.270 -17.795
O 174.519 28.305 -17.841
O 176.836 28.234 -17.749
C 175.194 29.056 -0.648
O 174.971 29.540 -31.050
O 175.416 28.571 -1.678
C 173.485 31.089 -26.251
O 173.083 30.576 -27.211
O 173.888 0.169 -25.292
C 137.140 23.707 -24.630
O 136.123 23.490 -24.115
O 138.156 23.923 -25.145
C 158.934 25.359 -25.633
O 159.477 24.422 -26.050
O 158.392 26.296 -25.217
C 97.012 28.879 -22.241
O 97.352 29.094 -23.328
O 96.671 28.665 -21.152
C 169.391 19.903 -8.517
O 169.756 18.803 -8.562
O 169.027 21.003 -8.473
C 126.181 13.441 -29.719
O 125.096 13.171 -29.412
O 127.266 13.712 -30.026
C 120.305 21.490 -5.362
O 120.754 21.095 -6.356
O 119.856 21.885 -4.369
C 190.809 10.854 -29.533
O 191.432 11.824 -29.401
O 190.186 9.885 -29.665
C 124.264 13.188 -18.978
O 124.602 12.093 -19.159
O 123.925 14.282 -18.797
C 178.097 25.983 -0.747
O 178.978 26.291 -1.435
O 177.216 25.675 -31.490
C 216.449 10.199 -28.911
O 215.960 10.095 -27.863
O 216.937 10.303 -29.958
C 207.052 22.430 -26.375
O 206.039 22.996 -26.411
O 208.064 21.865 -26.338
C 153.848 30.352 -16.836
O 152.704 30.542 -16.808
O 154.991 30.161 -16.863
C 171.074 1.785 -8.729
O 170.281 0.990 -9.018
O 171.868 2.581 -8.441
C 124.975 1.278 -17.070
O 124.313 1.923 -17.771
O 125.638 0.633 -16.369
C 219.491 19.926 -9.372
O 220.025 18.932 -9.641
O 218.958 20.920 -9.102
C 111.757 29.787 -3.636
O 112.556 28.975 -3.420
O 110.958 30.600 -3.853
C 145.587 12.232 -9.652
O 145.154 12.010 -10.705
O 146.021 12.455 -8.599
C 127.814 21.173 -4.977
O 127.121 21.941 -4.451
O 128.506 20.405 -5.502
C 213.743 18.832 -8.511
O 212.932 19.625 -8.264
O 214.553 18.040 -8.758
C 216.187 19.077 -13.463
O 216.055 19.742 -14.404
O 216.319 18.411 -12.522
C 193.455 6.079 -20.611
O 193.120 5.276 -21.378
O 193.791 6.881 -19.843
C 149.863 1.114 -18.952
O 149.617 0.222 -18.252
O 150.108 2.006 -19.652
C 159.953 20.808 -28.146
O 159.612 19.790 -27.707
O 160.293 21.826 -28.585
C 124.359 27.579 -3.512
O 125.030 27.301 -4.417
O 123.688 27.856 -2.608
C 125.725 23.522 -25.108
O 125.524 22.837 -26.022
O 125.925 24.207 -24.193
C 63.433 19.450 -4.000
O 63.209 18.702 -4.858
O 63.658 20.198 -3.142
C 183.616 18.282 -13.239
O 184.048 18.004 -12.198
O 183.184 18.560 -14.279
C 166.697 17.017 -13.030
O 166.352 16.280 -13.857
O 167.041 17.753 -12.204
C 122.986 24.323 -27.617
O 122.501 23.429 -28.175
O 123.472 25.217 -27.060
C 117.427 17.468 -28.916
O 116.297 17.704 -28.807
O 118.558 17.231 -29.026
C 204.230 20.515 -11.454
O 203.147 20.198 -11.723
O 205.312 20.832 -11.184
C 128.360 25.067 -28.127
O 128.655 25.132 -29.247
O 128.066 25.003 -27.007
C 126.669 20.051 -23.288
O 126.745 19.000 -23.773
O 126.592 21.102 -22.803
C 124.700 17.633 -7.540
O 124.330 17.033 -8.461
O 125.071 18.234 -6.620
C 61.702 14.335 -16.341
O 60.628 14.605 -16.686
O 62.776 14.063 -15.998
C 125.253 7.190 -8.782
O 124.775 7.651 -9.733
O 125.732 6.729 -7.831
C 163.775 4.197 -8.032
O 164.156 3.555 -7.144
O 163.394 4.839 -8.919
C 84.550 4.457 -3.062
O 83.833 5.041 -2.362
O 85.267 3.873 -3.763
C 128.919 18.532 -9.745
O 129.909 18.065 -10.128
O 127.928 18.998 -9.362
C 207.507 30.138 -16.796
O 207.553 28.979 -16.771
O 207.461 31.297 -16.822
C 229.067 3.983 -17.095
O 229.066 5.126 -16.895
O 229.069 2.840 -17.296
C 151.466 12.028 -2.142
O 151.133 11.421 -1.212
O 151.800 12.636 -3.072
C 123.956 9.098 -4.229
O 123.882 8.644 -3.164
O 124.030 9.552 -5.294
C 132.580 3.522 -8.597
O 131.725 2.799 -8.900
O 133.435 4.245 -8.293
C 125.015 29.211 -25.494
O 125.854 30.005 -25.391
O 124.175 28.417 -25.596
C 219.001 11.494 -24.294
O 218.911 10.867 -23.322
O 219.091 12.121 -25.265
C 209.678 19.610 -11.448
O 210.528 19.789 -10.679
O 208.828 19.432 -12.217
C 49.082 2.466 -1.645
O 48.300 2.533 -2.499
O 49.864 2.399 -0.792
C 165.854 12.638 -15.701
O 165.075 11.794 -15.870
O 166.632 13.481 -15.531
C 177.604 26.034 -6.146
O 176.476 25.889 -6.373
O 178.732 26.180 -5.920
C 138.421 27.072 -11.575
O 137.990 27.456 -12.581
O 138.852 26.689 -10.568
C 176.222 1.211 -17.948
O 176.094 2.343 -17.733
O 176.350 0.078 -18.163
C 215.028 26.779 -14.256
O 214.709 26.455 -13.188
O 215.346 27.104 -15.323
C 153.025 10.284 -26.456
O 153.722 9.377 -26.651
O 152.328 11.191 -26.261
C 124.756 28.983 -18.698
O 124.674 28.529 -17.633
O 124.839 29.437 -19.762
C 228.415 0.002 -27.656
O 228.327 0.293 -28.775
O 228.503 31.143 -26.536
C 123.607 6.056 -25.031
O 122.888 6.409 -24.192
O 124.326 5.703 -25.870
C 218.222 14.201 -4.662
O 217.717 14.526 -5.655
O 218.726 13.877 -3.669
C 123.541 17.417 -16.824
O 124.586 17.240 -16.353
O 122.495 17.593 -17.295
C 216.055 21.083 -23.912
O 216.645 20.727 -24.845
O 215.466 21.439 -22.978
C 128.161 24.129 -11.186
O 127.478 24.046 -12.120
O 128.843 24.212 -10.251
C 214.390 16.358 -15.543
O 214.126 16.811 -14.509
O 214.655 15.905 -16.578
C 216.792 30.711 -30.297
O 216.541 30.000 -29.415
O 217.043 31.421 -31.178
C 220.335 21.846 -5.458
O 220.250 22.151 -4.342
O 220.419 21.540 -6.574
C 159.617 14.322 -18.029
O 159.560 13.420 -18.755
O 159.675 15.225 -17.302
C 68.251 21.393 -6.417
O 68.109 22.481 -6.791
O 68.392 20.304 -6.043
C 230.344 7.848 -8.752
O 229.775 8.627 -9.396
O 230.912 7.070 -8.107
C 120.284 30.533 -31.218
O 120.116 29.389 -31.118
O 120.452 0.244 -31.319
C 216.674 12.677 -17.483
O 217.765 12.380 -17.225
O 215.583 12.974 -17.740
C 149.470 14.377 -30.965
O 149.994 14.661 -0.528
O 148.946 14.094 -29.969
C 210.618 20.074 -14.698
O 211.426 19.491 -14.105
O 209.810 20.657 -15.291
C 218.740 20.906 -0.064
O 219.266 20.044 -0.635
O 218.213 21.767 -30.925
C 125.721 4.551 -30.178
O 125.854 5.696 -30.310
O 125.587 3.406 -30.047
C 124.044 22.184 -5.123
O 124.028 21.122 -5.590
O 124.060 23.245 -4.655
C 170.723 22.254 -11.090
O 171.753 21.753 -11.274
O 169.693 22.755 -10.905
C 153.569 1.297 -20.253
O 152.914 0.631 -19.566
O 154.225 1.963 -20.940
C 178.347 5.410 -29.529
O 177.873 6.395 -29.143
O 178.822 4.425 -29.916
C 166.997 20.459 -13.435
O 168.154 20.398 -13.489
O 165.840 20.520 -13.381
C 162.671 13.440 -22.434
O 162.275 14.517 -22.268
O 163.067 12.362 -22.600
C 193.935 27.898 -26.129
O 194.618 27.189 -25.516
O 193.251 28.607 -26.741
C 163.145 3.867 -0.097
O 163.579 4.045 -30.468
O 162.711 3.688 -1.158
C 206.186 28.319 -21.434
O 207.294 28.622 -21.273
O 205.078 28.015 -21.595
C 122.239 2.863 -21.411
O 122.171 3.904 -21.918
O 122.307 1.821 -20.904
C 163.462 17.622 -26.169
O 162.651 17.461 -25.355
O 164.273 17.782 -26.982
C 204.092 8.258 -10.964
O 203.034 8.692 -11.157
O 205.150 7.823 -10.771
C 213.307 22.457 -19.738
O 212.919 23.378 -19.148
O 213.696 21.536 -20.327
C 121.102 7.744 -28.586
O 120.787 8.852 -28.721
O 121.418 6.636 -28.451
C 165.183 26.073 -5.434
O 165.833 26.751 -6.116
O 164.533 25.395 -4.753
C 175.695 17.125 -1.044
O 176.253 16.134 -1.271
O 175.136 18.116 -0.817
C 216.948 12.086 -9.706
O 217.306 13.173 -9.515
O 216.589 11.000 -9.897
C 160.134 21.494 -0.978
O 159.819 20.381 -0.895
O 160.449 22.608 -1.061
C 179.140 21.992 -4.676
O 178.691 22.211 -3.629
O 179.589 21.773 -5.723
C 187.214 17.128 -29.644
O 186.629 16.701 -28.738
O 187.798 17.554 -30.550
C 171.390 21.485 -25.009
O 172.233 21.725 -24.249
O 170.548 21.246 -25.770
C 126.122 18.039 -30.003
O 127.217 18.415 -30.072
O 125.026 17.663 -29.933
C 215.878 11.656 -22.686
O 216.477 12.250 -23.482
O 215.279 11.062 -21.889
C 192.928 14.614 -6.753
O 193.932 15.038 -7.151
O 191.924 14.190 -6.355
C 186.423 10.094 -27.984
O 187.307 9.345 -27.935
O 185.539 10.844 -28.034
C 113.277 15.232 -25.554
O 112.817 15.274 -26.618
O 113.736 15.189 -24.490
C 191.492 4.698 -14.426
O 191.447 5.361 -15.376
O 191.536 4.035 -13.475
C 130.428 9.713 -20.153
O 131.214 10.482 -19.782
O 129.643 8.944 -20.523
C 125.796 20.652 -10.011
O 124.982 19.909 -9.649
O 126.609 21.396 -10.373
C 188.120 21.740 -1.412
O 187.115 21.252 -1.724
O 189.125 22.228 -1.100
C 197.404 27.566 -5.467
O 196.906 28.237 -4.662
O 197.903 26.895 -6.271
C 64.711 26.689 -4.114
O 64.614 26.518 -5.257
O 64.809 26.860 -2.971
C 144.500 5.483 -15.710
O 144.494 4.599 -14.960
O 144.506 6.368 -16.460
C 209.124 24.205 -19.295
O 208.787 25.091 -19.964
O 209.460 23.319 -18.627
C 214.838 0.359 -10.799
O 214.590 1.246 -11.504
O 215.087 30.904 -10.094
C 219.661 24.997 -2.943
O 220.437 25.022 -2.082
O 218.885 24.973 -3.805
C 160.008 19.295 -22.048
O 160.379 18.225 -21.795
O 159.637 20.365 -22.301
C 181.893 6.029 -31.168
O 181.990 4.910 -0.028
O 181.796 7.147 -30.876
C 159.001 0.223 -31.016
O 159.019 30.773 -0.338
O 158.982 1.104 -30.263
C 214.705 0.269 -23.661
O 215.813 0.558 -23.480
O 213.596 31.411 -23.842
C 195.962 15.651 -21.098
O 196.587 16.109 -21.962
O 195.338 15.194 -20.234
C 214.414 14.286 -10.111
O 214.574 13.900 -11.194
O 214.255 14.672 -9.029
C 127.070 12.107 -2.863
O 126.703 11.154 -3.412
O 127.437 13.061 -2.313
C 142.075 26.953 -3.230
O 141.074 27.421 -3.580
O 143.077 26.485 -2.879
C 124.596 14.764 -10.744
O 123.806 14.272 -10.051
O 125.386 15.256 -11.436
C 164.497 18.583 -2.021
O 164.384 18.262 -3.130
O 164.609 18.904 -0.912
C 197.294 7.756 -16.642
O 196.358 7.303 -17.154
O 198.231 8.210 -16.130
C 164.366 2.504 -23.425
O 165.391 3.012 -23.614
O 163.340 1.996 -23.236
C 213.314 7.544 -21.275
O 214.102 7.062 -20.574
O 212.527 8.027 -21.977
C 188.704 29.668 -19.868
O 189.031 30.590 -19.244
O 188.377 28.746 -20.491
C 214.122 4.399 -12.548
O 213.796 4.006 -13.590
O 214.448 4.792 -11.507
C 175.053 30.508 -14.007
O 175.970 30.203 -14.649
O 174.137 30.813 -13.366
C 126.152 23.129 -16.927
O 125.025 22.889 -17.057
O 127.280 23.369 -16.798
C 179.666 30.296 -17.000
O 179.908 31.001 -17.889
O 179.424 29.591 -16.111
C 211.174 9.960 -3.929
O 210.337 9.748 -3.154
O 212.010 10.173 -4.704
C 213.941 28.087 -10.555
O 214.664 27.536 -9.834
O 213.219 28.639 -11.276
C 209.979 21.810 -3.497
O 209.601 22.905 -3.431
O 210.356 20.715 -3.563
C 126.195 18.397 -2.584
O 125.878 19.235 -1.846
O 126.511 17.560 -3.321
C 128.296 3.865 -22.378
O 127.964 3.342 -21.397
O 128.627 4.388 -23.359
C 180.949 14.456 -17.149
O 181.929 14.752 -17.693
O 179.968 14.159 -16.604
C 193.914 28.976 -0.131
O 193.601 28.042 -0.743
O 194.227 29.911 -30.951
C 134.442 10.166 -31.307
O 134.004 9.195 -0.334
O 134.881 11.137 -30.848
C 153.181 13.441 -28.918
O 153.400 14.574 -29.031
O 152.962 12.307 -28.805
C 189.830 8.009 -15.959
O 188.891 7.552 -16.464
O 190.769 8.466 -15.454
C 170.509 2.554 -2.681
O 169.992 2.942 -1.718
O 171.025 2.165 -3.645
C 127.102 9.905 -13.578
O 127.385 9.041 -12.857
O 126.818 10.769 -14.298
C 188.625 12.233 -22.193
O 188.158 13.248 -22.503
O 189.092 11.217 -21.884
C 182.211 24.937 -18.591
O 181.351 24.872 -17.815
O 183.070 25.002 -19.367
C 171.485 23.428 -19.196
O 171.633 23.776 -20.293
O 171.337 23.081 -18.099
C 183.406 31.262 -23.391
O 183.337 31.036 -24.526
O 183.475 0.057 -22.255
C 205.756 4.350 -10.918
O 206.896 4.307 -10.709
O 204.615 4.393 -11.127
C 206.623 11.319 -20.644
O 205.645 11.155 -21.244
O 207.602 11.483 -20.043
C 212.488 23.792 -24.358
O 212.199 23.019 -23.543
O 212.777 24.565 -25.174
C 215.700 8.196 -5.996
O 214.879 8.496 -5.234
O 216.521 7.897 -6.759
C 160.719 9.775 -23.403
O 160.656 10.830 -22.926
O 160.783 8.720 -23.881
C 154.357 1.579 -8.396
O 155.469 1.675 -8.080
O 153.246 1.484 -8.712
C 186.330 15.654 -16.246
O 185.256 16.079 -16.133
O 187.403 15.229 -16.360
C 96.588 5.481 -19.421
O 97.538 5.677 -20.056
O 95.637 5.285 -18.785
C 186.601 28.248 -24.218
O 186.407 28.790 -23.211
O 186.796 27.706 -25.225
C 142.999 21.629 -0.585
O 143.184 21.077 -1.588
O 142.814 22.180 -31.013
C 126.594 10.335 -20.764
O 126.865 9.527 -19.977
O 126.322 11.143 -21.550
C 191.845 9.963 -18.904
O 191.665 9.092 -19.648
O 192.025 10.834 -18.159
C 217.983 24.842 -6.830
O 216.914 25.292 -6.865
O 219.052 24.393 -6.796
C 189.249 5.626 -18.533
O 190.364 5.840 -18.294
O 188.134 5.413 -18.773
C 207.309 17.334 -20.612
O 208.303 16.916 -21.039
O 206.315 17.752 -20.186
C 165.408 20.763 -28.481
O 166.202 20.251 -29.153
O 164.613 21.275 -27.808
C 213.208 27.782 -25.999
O 212.777 27.912 -24.930
O 213.638 27.652 -27.068
C 151.649 21.212 -18.966
O 152.412 21.627 -18.197
O 150.885 20.797 -19.734
C 234.822 20.443 -9.937
O 234.951 19.459 -10.537
O 234.693 21.428 -9.337
C 127.738 16.215 -1.078
O 128.782 16.323 -1.573
O 126.695 16.107 -0.583
C 123.251 4.872 -6.488
O 123.770 3.918 -6.079
O 122.732 5.826 -6.896
C 215.629 28.300 -22.617
O 215.751 27.564 -23.504
O 215.506 29.038 -21.729
C 59.714 1.966 -7.385
O 59.860 3.115 -7.445
O 59.568 0.817 -7.325
C 212.797 31.436 -28.032
O 213.345 0.871 -28.572
O 212.249 30.568 -27.492
